# 
#  This pseudopotential file has been produced using the code
#  ONCVPSP (Optimized Norm-Conservinng Vanderbilt PSeudopotential)
#  scalar-relativistic version 2.1.1, 03/26/2014 by D. R. Hamann
#  as distributed by Mat-Sim Research at www.mat-simresearch.com.
#  Reference:
#    D. R. Hamann, Phys. Rev. B 88, 085117 (2013)
#    DOI:https://doi.org/10.1103/PhysRevB.88.085117
#
#
#  Pseudopotential generation was done by M. Schlipf and F. Gygi using
#  the input parameters obtained from their optimization algorithm.
#  Reference:
#    M. Schlipf and F. Gygi, Computer Physics Communications (2015)
#    DOI: 10.1016/j.cpc.2015.05.011
#    http://dx.doi.org/10.1016/j.cpc.2015.05.011
#    http://www.quantum-simulation.org
#  License:
#  This work is licensed under the Creative Commons Attribution-ShareAlike
#  4.0 International License. To view a copy of this license, visit
#  http://creativecommons.org/licenses/by-sa/4.0/ or send a letter to
#  Creative Commons, PO Box 1866, Mountain View, CA 94042, USA.
#
#
#  Format:
#    The format of this file has been adapted to match MGmol pseudopotential
#    parser using the script convertONCVPSP_SG15.py
# 
# 
H_ONCV_PBE-1
#
color
#radii of balls and covalent bonds
-1.  -1.
# Nlcc flag
0
# Atomic number
1
# Atomic mass
1.00800002
# Number of valence electrons
1
#Gaussian core charge parameter rc
1.0
# Number of potentials
2
# l-value for state which is local, then type of potential format
1 3
# Local potential radius
3.
# Non-local potential radius
3.
# number of points in radial grid
602
# VANDERBILT-KLEINMAN-BYLANDER PROJECTORs
# l, nproj
0 2    -0.1200822074E+02    -0.5168231457E+00 
# l= 0
0.0 -26.144993732 -6.6261431656 
0.01 -26.088547982 -6.623038428 
0.02 -25.916637736 -6.6135222609 
0.03 -25.631880647 -6.5978029283 
0.04 -25.23689437 -6.5760886938 
0.05 -24.73529928 -6.5486648785 
0.06 -24.131674869 -6.5158877548 
0.07 -23.431504724 -6.4781768974 
0.08 -22.641110844 -6.4360061358 
0.09 -21.767578207 -6.3898932817 
0.1 -20.818670611 -6.3403888294 
0.11 -19.802738969 -6.288063845 
0.12 -18.728623288 -6.233497282 
0.13 -17.605549695 -6.1772629672 
0.14 -16.443023886 -6.1199165179 
0.15 -15.250722479 -6.0619824425 
0.16 -14.0383837 -6.0039416965 
0.17 -12.815698887 -5.9462199275 
0.18 -11.592206268 -5.8891766803 
0.19 -10.377188348 -5.8330957569 
0.2 -9.1795744603 -5.778177002 
0.21 -8.0078492162 -5.7245295875 
0.22 -6.8699687507 -5.6721671176 
0.23 -5.7732851253 -5.6210045487 
0.24 -4.7244804801 -5.5708571415 
0.25 -3.7295100077 -5.5214412906 
0.26 -2.7935580307 -5.4723777378 
0.27 -1.9210019891 -5.4231964672 
0.28 -1.1153905525 -5.3733439651 
0.29 -0.37943166834 -5.3221922646 
0.3 0.28500778335 -5.2690498829 
0.31 0.87689122751 -5.2131744792 
0.32 1.3959901261 -5.1537870641 
0.33 1.842854936 -5.090087487 
0.34 2.2187717648 -5.0212711778 
0.35 2.5257148571 -4.9465466581 
0.36 2.7662894671 -4.8651537341 
0.37 2.9436701537 -4.7763821773 
0.38 3.0615310267 -4.6795901736 
0.39 3.1239753765 -4.5742229714 
0.4 3.1354612521 -4.4598311282 
0.41 3.1007248464 -4.3360876707 
0.42 3.0247050928 -4.2028046831 
0.43 2.9124690371 -4.0599486785 
0.44 2.7691396195 -3.9076546393 
0.45 2.5998270281 -3.7462385553 
0.46 2.4095647032 -3.5762083127 
0.47 2.2032513542 -3.3982724791 
0.48 1.9855988454 -3.2133480265 
0.49 1.7610864453 -3.0225665171 
0.5 1.5339245444 -2.8272741743 
0.51 1.3080114426 -2.6289470049 
0.52 1.0868680429 -2.4290121054 
0.53 0.87360885546 -2.2288099895 
0.54 0.67093255759 -2.0296022981 
0.55 0.48109735984 -1.8325731849 
0.56 0.30594152485 -1.6388354429 
0.57 0.14686820396 -1.4494277417 
0.58 0.0048794741441 -1.2653179999 
0.59 -0.11942689616 -1.087397975 
0.6 -0.22580943546 -0.91648598979 
0.61 -0.31437875986 -0.75331895703 
0.62 -0.38554619953 -0.59855398541 
0.63 -0.43999626791 -0.45276379604 
0.64 -0.47865333887 -0.31643211687 
0.65 -0.50263447316 -0.18995474113 
0.66 -0.51321529929 -0.073636108323 
0.67 -0.51179304927 0.032314163652 
0.68 -0.49984433389 0.12777831463 
0.69 -0.4788911889 0.21273043328 
0.7 -0.45046752447 0.28723632359 
0.71 -0.41608653356 0.35145158052 
0.72 -0.37721304752 0.40561593312 
0.73 -0.33523886529 0.45004955917 
0.74 -0.29146160866 0.48514756535 
0.75 -0.24706854694 0.51137305511 
0.76 -0.20312002035 0.52925125894 
0.77 -0.16054154583 0.53936034338 
0.78 -0.12011860336 0.5423226612 
0.79 -0.082493802386 0.53879590148 
0.8 -0.048167908935 0.52946366777 
0.81 -0.017503923898 0.51502589412 
0.82 0.0092661243396 0.49618926123 
0.83 0.032032048003 0.47365777464 
0.84 0.050794430308 0.44812366328 
0.85 0.065652035529 0.42025874927 
0.86 0.076788121482 0.39070642971 
0.87 0.084456072356 0.36007439806 
0.88 0.088964756227 0.32892821685 
0.89 0.090663989279 0.29778583596 
0.9 0.08993045932 0.26711313099 
0.91 0.087154424963 0.23732051498 
0.92 0.082727465014 0.20876065462 
0.93 0.07703150592 0.18172729873 
0.94 0.070429304591 0.15645520299 
0.95 0.0632575474 0.13312253135 
0.96 0.055817897163 0.11184866103 
0.97 0.048374109811 0.092700624313 
0.98 0.041148944292 0.075696225538 
0.99 0.034322686376 0.060808316628 
1.0 0.028033278554 0.047969874788 
1.01 0.022377769195 0.037079526869 
1.02 0.017416366591 0.028008131496 
1.03 0.013171136963 0.020601814101 
1.04 0.0096345528118 0.014691310722 
1.05 0.0067740527431 0.010097458313 
1.06 0.0045367564702 0.006636636954 
1.07 0.0028548660497 0.0041254689578 
1.08 0.0016493187803 0.00238648968 
1.09 0.00083668145041 0.0012538591145 
1.1 0.00033347886198 0.00057586875856 
1.11 5.9182218983e-05 0.0002174556567 
1.12 -6.1279042127e-05 6.1858373484e-05 
1.13 -9.75929005e-05 1.8382744969e-05 
1.14 -7.4370115942e-05 1.3173155553e-05 
1.15 -6.5622804891e-06 9.4619237342e-07 
1.16 4.7454149382e-06 -9.0550312647e-07 
1.17 0.0 0.0 
1.18 0.0 0.0 
1.19 0.0 0.0 
1.2 0.0 0.0 
1.21 0.0 0.0 
1.22 0.0 0.0 
1.23 0.0 0.0 
1.24 0.0 0.0 
1.25 0.0 0.0 
1.26 0.0 0.0 
1.27 0.0 0.0 
1.28 0.0 0.0 
1.29 0.0 0.0 
1.3 0.0 0.0 
1.31 0.0 0.0 
1.32 0.0 0.0 
1.33 0.0 0.0 
1.34 0.0 0.0 
1.35 0.0 0.0 
1.36 0.0 0.0 
1.37 0.0 0.0 
1.38 0.0 0.0 
1.39 0.0 0.0 
1.4 0.0 0.0 
1.41 0.0 0.0 
1.42 0.0 0.0 
1.43 0.0 0.0 
1.44 0.0 0.0 
1.45 0.0 0.0 
1.46 0.0 0.0 
1.47 0.0 0.0 
1.48 0.0 0.0 
1.49 0.0 0.0 
1.5 0.0 0.0 
1.51 0.0 0.0 
1.52 0.0 0.0 
1.53 0.0 0.0 
1.54 0.0 0.0 
1.55 0.0 0.0 
1.56 0.0 0.0 
1.57 0.0 0.0 
1.58 0.0 0.0 
1.59 0.0 0.0 
1.6 0.0 0.0 
1.61 0.0 0.0 
1.62 0.0 0.0 
1.63 0.0 0.0 
1.64 0.0 0.0 
1.65 0.0 0.0 
1.66 0.0 0.0 
1.67 0.0 0.0 
1.68 0.0 0.0 
1.69 0.0 0.0 
1.7 0.0 0.0 
1.71 0.0 0.0 
1.72 0.0 0.0 
1.73 0.0 0.0 
1.74 0.0 0.0 
1.75 0.0 0.0 
1.76 0.0 0.0 
1.77 0.0 0.0 
1.78 0.0 0.0 
1.79 0.0 0.0 
1.8 0.0 0.0 
1.81 0.0 0.0 
1.82 0.0 0.0 
1.83 0.0 0.0 
1.84 0.0 0.0 
1.85 0.0 0.0 
1.86 0.0 0.0 
1.87 0.0 0.0 
1.88 0.0 0.0 
1.89 0.0 0.0 
1.9 0.0 0.0 
1.91 0.0 0.0 
1.92 0.0 0.0 
1.93 0.0 0.0 
1.94 0.0 0.0 
1.95 0.0 0.0 
1.96 0.0 0.0 
1.97 0.0 0.0 
1.98 0.0 0.0 
1.99 0.0 0.0 
2.0 0.0 0.0 
2.01 0.0 0.0 
2.02 0.0 0.0 
2.03 0.0 0.0 
2.04 0.0 0.0 
2.05 0.0 0.0 
2.06 0.0 0.0 
2.07 0.0 0.0 
2.08 0.0 0.0 
2.09 0.0 0.0 
2.1 0.0 0.0 
2.11 0.0 0.0 
2.12 0.0 0.0 
2.13 0.0 0.0 
2.14 0.0 0.0 
2.15 0.0 0.0 
2.16 0.0 0.0 
2.17 0.0 0.0 
2.18 0.0 0.0 
2.19 0.0 0.0 
2.2 0.0 0.0 
2.21 0.0 0.0 
2.22 0.0 0.0 
2.23 0.0 0.0 
2.24 0.0 0.0 
2.25 0.0 0.0 
2.26 0.0 0.0 
2.27 0.0 0.0 
2.28 0.0 0.0 
2.29 0.0 0.0 
2.3 0.0 0.0 
2.31 0.0 0.0 
2.32 0.0 0.0 
2.33 0.0 0.0 
2.34 0.0 0.0 
2.35 0.0 0.0 
2.36 0.0 0.0 
2.37 0.0 0.0 
2.38 0.0 0.0 
2.39 0.0 0.0 
2.4 0.0 0.0 
2.41 0.0 0.0 
2.42 0.0 0.0 
2.43 0.0 0.0 
2.44 0.0 0.0 
2.45 0.0 0.0 
2.46 0.0 0.0 
2.47 0.0 0.0 
2.48 0.0 0.0 
2.49 0.0 0.0 
2.5 0.0 0.0 
2.51 0.0 0.0 
2.52 0.0 0.0 
2.53 0.0 0.0 
2.54 0.0 0.0 
2.55 0.0 0.0 
2.56 0.0 0.0 
2.57 0.0 0.0 
2.58 0.0 0.0 
2.59 0.0 0.0 
2.6 0.0 0.0 
2.61 0.0 0.0 
2.62 0.0 0.0 
2.63 0.0 0.0 
2.64 0.0 0.0 
2.65 0.0 0.0 
2.66 0.0 0.0 
2.67 0.0 0.0 
2.68 0.0 0.0 
2.69 0.0 0.0 
2.7 0.0 0.0 
2.71 0.0 0.0 
2.72 0.0 0.0 
2.73 0.0 0.0 
2.74 0.0 0.0 
2.75 0.0 0.0 
2.76 0.0 0.0 
2.77 0.0 0.0 
2.78 0.0 0.0 
2.79 0.0 0.0 
2.8 0.0 0.0 
2.81 0.0 0.0 
2.82 0.0 0.0 
2.83 0.0 0.0 
2.84 0.0 0.0 
2.85 0.0 0.0 
2.86 0.0 0.0 
2.87 0.0 0.0 
2.88 0.0 0.0 
2.89 0.0 0.0 
2.9 0.0 0.0 
2.91 0.0 0.0 
2.92 0.0 0.0 
2.93 0.0 0.0 
2.94 0.0 0.0 
2.95 0.0 0.0 
2.96 0.0 0.0 
2.97 0.0 0.0 
2.98 0.0 0.0 
2.99 0.0 0.0 
3.0 0.0 0.0 
3.01 0.0 0.0 
3.02 0.0 0.0 
3.03 0.0 0.0 
3.04 0.0 0.0 
3.05 0.0 0.0 
3.06 0.0 0.0 
3.07 0.0 0.0 
3.08 0.0 0.0 
3.09 0.0 0.0 
3.1 0.0 0.0 
3.11 0.0 0.0 
3.12 0.0 0.0 
3.13 0.0 0.0 
3.14 0.0 0.0 
3.15 0.0 0.0 
3.16 0.0 0.0 
3.17 0.0 0.0 
3.18 0.0 0.0 
3.19 0.0 0.0 
3.2 0.0 0.0 
3.21 0.0 0.0 
3.22 0.0 0.0 
3.23 0.0 0.0 
3.24 0.0 0.0 
3.25 0.0 0.0 
3.26 0.0 0.0 
3.27 0.0 0.0 
3.28 0.0 0.0 
3.29 0.0 0.0 
3.3 0.0 0.0 
3.31 0.0 0.0 
3.32 0.0 0.0 
3.33 0.0 0.0 
3.34 0.0 0.0 
3.35 0.0 0.0 
3.36 0.0 0.0 
3.37 0.0 0.0 
3.38 0.0 0.0 
3.39 0.0 0.0 
3.4 0.0 0.0 
3.41 0.0 0.0 
3.42 0.0 0.0 
3.43 0.0 0.0 
3.44 0.0 0.0 
3.45 0.0 0.0 
3.46 0.0 0.0 
3.47 0.0 0.0 
3.48 0.0 0.0 
3.49 0.0 0.0 
3.5 0.0 0.0 
3.51 0.0 0.0 
3.52 0.0 0.0 
3.53 0.0 0.0 
3.54 0.0 0.0 
3.55 0.0 0.0 
3.56 0.0 0.0 
3.57 0.0 0.0 
3.58 0.0 0.0 
3.59 0.0 0.0 
3.6 0.0 0.0 
3.61 0.0 0.0 
3.62 0.0 0.0 
3.63 0.0 0.0 
3.64 0.0 0.0 
3.65 0.0 0.0 
3.66 0.0 0.0 
3.67 0.0 0.0 
3.68 0.0 0.0 
3.69 0.0 0.0 
3.7 0.0 0.0 
3.71 0.0 0.0 
3.72 0.0 0.0 
3.73 0.0 0.0 
3.74 0.0 0.0 
3.75 0.0 0.0 
3.76 0.0 0.0 
3.77 0.0 0.0 
3.78 0.0 0.0 
3.79 0.0 0.0 
3.8 0.0 0.0 
3.81 0.0 0.0 
3.82 0.0 0.0 
3.83 0.0 0.0 
3.84 0.0 0.0 
3.85 0.0 0.0 
3.86 0.0 0.0 
3.87 0.0 0.0 
3.88 0.0 0.0 
3.89 0.0 0.0 
3.9 0.0 0.0 
3.91 0.0 0.0 
3.92 0.0 0.0 
3.93 0.0 0.0 
3.94 0.0 0.0 
3.95 0.0 0.0 
3.96 0.0 0.0 
3.97 0.0 0.0 
3.98 0.0 0.0 
3.99 0.0 0.0 
4.0 0.0 0.0 
4.01 0.0 0.0 
4.02 0.0 0.0 
4.03 0.0 0.0 
4.04 0.0 0.0 
4.05 0.0 0.0 
4.06 0.0 0.0 
4.07 0.0 0.0 
4.08 0.0 0.0 
4.09 0.0 0.0 
4.1 0.0 0.0 
4.11 0.0 0.0 
4.12 0.0 0.0 
4.13 0.0 0.0 
4.14 0.0 0.0 
4.15 0.0 0.0 
4.16 0.0 0.0 
4.17 0.0 0.0 
4.18 0.0 0.0 
4.19 0.0 0.0 
4.2 0.0 0.0 
4.21 0.0 0.0 
4.22 0.0 0.0 
4.23 0.0 0.0 
4.24 0.0 0.0 
4.25 0.0 0.0 
4.26 0.0 0.0 
4.27 0.0 0.0 
4.28 0.0 0.0 
4.29 0.0 0.0 
4.3 0.0 0.0 
4.31 0.0 0.0 
4.32 0.0 0.0 
4.33 0.0 0.0 
4.34 0.0 0.0 
4.35 0.0 0.0 
4.36 0.0 0.0 
4.37 0.0 0.0 
4.38 0.0 0.0 
4.39 0.0 0.0 
4.4 0.0 0.0 
4.41 0.0 0.0 
4.42 0.0 0.0 
4.43 0.0 0.0 
4.44 0.0 0.0 
4.45 0.0 0.0 
4.46 0.0 0.0 
4.47 0.0 0.0 
4.48 0.0 0.0 
4.49 0.0 0.0 
4.5 0.0 0.0 
4.51 0.0 0.0 
4.52 0.0 0.0 
4.53 0.0 0.0 
4.54 0.0 0.0 
4.55 0.0 0.0 
4.56 0.0 0.0 
4.57 0.0 0.0 
4.58 0.0 0.0 
4.59 0.0 0.0 
4.6 0.0 0.0 
4.61 0.0 0.0 
4.62 0.0 0.0 
4.63 0.0 0.0 
4.64 0.0 0.0 
4.65 0.0 0.0 
4.66 0.0 0.0 
4.67 0.0 0.0 
4.68 0.0 0.0 
4.69 0.0 0.0 
4.7 0.0 0.0 
4.71 0.0 0.0 
4.72 0.0 0.0 
4.73 0.0 0.0 
4.74 0.0 0.0 
4.75 0.0 0.0 
4.76 0.0 0.0 
4.77 0.0 0.0 
4.78 0.0 0.0 
4.79 0.0 0.0 
4.8 0.0 0.0 
4.81 0.0 0.0 
4.82 0.0 0.0 
4.83 0.0 0.0 
4.84 0.0 0.0 
4.85 0.0 0.0 
4.86 0.0 0.0 
4.87 0.0 0.0 
4.88 0.0 0.0 
4.89 0.0 0.0 
4.9 0.0 0.0 
4.91 0.0 0.0 
4.92 0.0 0.0 
4.93 0.0 0.0 
4.94 0.0 0.0 
4.95 0.0 0.0 
4.96 0.0 0.0 
4.97 0.0 0.0 
4.98 0.0 0.0 
4.99 0.0 0.0 
5.0 0.0 0.0 
5.01 0.0 0.0 
5.02 0.0 0.0 
5.03 0.0 0.0 
5.04 0.0 0.0 
5.05 0.0 0.0 
5.06 0.0 0.0 
5.07 0.0 0.0 
5.08 0.0 0.0 
5.09 0.0 0.0 
5.1 0.0 0.0 
5.11 0.0 0.0 
5.12 0.0 0.0 
5.13 0.0 0.0 
5.14 0.0 0.0 
5.15 0.0 0.0 
5.16 0.0 0.0 
5.17 0.0 0.0 
5.18 0.0 0.0 
5.19 0.0 0.0 
5.2 0.0 0.0 
5.21 0.0 0.0 
5.22 0.0 0.0 
5.23 0.0 0.0 
5.24 0.0 0.0 
5.25 0.0 0.0 
5.26 0.0 0.0 
5.27 0.0 0.0 
5.28 0.0 0.0 
5.29 0.0 0.0 
5.3 0.0 0.0 
5.31 0.0 0.0 
5.32 0.0 0.0 
5.33 0.0 0.0 
5.34 0.0 0.0 
5.35 0.0 0.0 
5.36 0.0 0.0 
5.37 0.0 0.0 
5.38 0.0 0.0 
5.39 0.0 0.0 
5.4 0.0 0.0 
5.41 0.0 0.0 
5.42 0.0 0.0 
5.43 0.0 0.0 
5.44 0.0 0.0 
5.45 0.0 0.0 
5.46 0.0 0.0 
5.47 0.0 0.0 
5.48 0.0 0.0 
5.49 0.0 0.0 
5.5 0.0 0.0 
5.51 0.0 0.0 
5.52 0.0 0.0 
5.53 0.0 0.0 
5.54 0.0 0.0 
5.55 0.0 0.0 
5.56 0.0 0.0 
5.57 0.0 0.0 
5.58 0.0 0.0 
5.59 0.0 0.0 
5.6 0.0 0.0 
5.61 0.0 0.0 
5.62 0.0 0.0 
5.63 0.0 0.0 
5.64 0.0 0.0 
5.65 0.0 0.0 
5.66 0.0 0.0 
5.67 0.0 0.0 
5.68 0.0 0.0 
5.69 0.0 0.0 
5.7 0.0 0.0 
5.71 0.0 0.0 
5.72 0.0 0.0 
5.73 0.0 0.0 
5.74 0.0 0.0 
5.75 0.0 0.0 
5.76 0.0 0.0 
5.77 0.0 0.0 
5.78 0.0 0.0 
5.79 0.0 0.0 
5.8 0.0 0.0 
5.81 0.0 0.0 
5.82 0.0 0.0 
5.83 0.0 0.0 
5.84 0.0 0.0 
5.85 0.0 0.0 
5.86 0.0 0.0 
5.87 0.0 0.0 
5.88 0.0 0.0 
5.89 0.0 0.0 
5.9 0.0 0.0 
5.91 0.0 0.0 
5.92 0.0 0.0 
5.93 0.0 0.0 
5.94 0.0 0.0 
5.95 0.0 0.0 
5.96 0.0 0.0 
5.97 0.0 0.0 
5.98 0.0 0.0 
5.99 0.0 0.0 
6.0 0.0 0.0 
6.01 0.0 0.0 
# local
0.0 -4.5305218779E+00
0.01 -4.5284089720E+00
0.02 -4.5220184212E+00
0.03 -4.5114037120E+00
0.04 -4.4966183311E+00
0.05 -4.4777356928E+00
0.06 -4.4548477544E+00
0.07 -4.4280633842E+00
0.08 -4.3975065609E+00
0.09 -4.3633144927E+00
0.1 -4.3256357357E+00
0.11 -4.2846283859E+00
0.12 -4.2404583986E+00
0.13 -4.1932980789E+00
0.14 -4.1433247629E+00
0.15 -4.0907197020E+00
0.16 -4.0356671403E+00
0.17 -3.9783535712E+00
0.18 -3.9189671485E+00
0.19 -3.8576972237E+00
0.2 -3.7947339776E+00
0.21 -3.7302681189E+00
0.22 -3.6644906170E+00
0.23 -3.5975924479E+00
0.24 -3.5297643280E+00
0.25 -3.4611964189E+00
0.26 -3.3920779908E+00
0.27 -3.3225970286E+00
0.28 -3.2529397798E+00
0.29 -3.1832902352E+00
0.3 -3.1138295398E+00
0.31 -3.0447353352E+00
0.32 -2.9761810398E+00
0.33 -2.9083350399E+00
0.34 -2.8413598495E+00
0.35 -2.7754111817E+00
0.36 -2.7106369765E+00
0.37 -2.6471763504E+00
0.38 -2.5851585449E+00
0.39 -2.5247017700E+00
0.4 -2.4659120093E+00
0.41 -2.4088818244E+00
0.42 -2.3536890783E+00
0.43 -2.3003956295E+00
0.44 -2.2490459884E+00
0.45 -2.1996659368E+00
0.46 -2.1522611137E+00
0.47 -2.1068156068E+00
0.48 -2.0632904304E+00
0.49 -2.0216219188E+00
0.5 -1.9817205796E+00
0.51 -1.9434797533E+00
0.52 -1.9067958013E+00
0.53 -1.8715726471E+00
0.54 -1.8377209875E+00
0.55 -1.8051579454E+00
0.56 -1.7738062591E+00
0.57 -1.7435941046E+00
0.58 -1.7144544233E+00
0.59 -1.6863248148E+00
0.6 -1.6591469304E+00
0.61 -1.6328664577E+00
0.62 -1.6074326347E+00
0.63 -1.5827980959E+00
0.64 -1.5589187167E+00
0.65 -1.5357532972E+00
0.66 -1.5132634457E+00
0.67 -1.4914134773E+00
0.68 -1.4701701720E+00
0.69 -1.4495026594E+00
0.7 -1.4293823265E+00
0.71 -1.4097827127E+00
0.72 -1.3906793478E+00
0.73 -1.3720496664E+00
0.74 -1.3538729048E+00
0.75 -1.3361299847E+00
0.76 -1.3188034493E+00
0.77 -1.3018773333E+00
0.78 -1.2853370554E+00
0.79 -1.2691693214E+00
0.8 -1.2533620181E+00
0.81 -1.2379041071E+00
0.82 -1.2227855177E+00
0.83 -1.2079970392E+00
0.84 -1.1935302151E+00
0.85 -1.1793772377E+00
0.86 -1.1655308466E+00
0.87 -1.1519842302E+00
0.88 -1.1387309332E+00
0.89 -1.1257647694E+00
0.9 -1.1130797421E+00
0.91 -1.1006699731E+00
0.92 -1.0885296396E+00
0.93 -1.0766529220E+00
0.94 -1.0650339613E+00
0.95 -1.0536668290E+00
0.96 -1.0425454977E+00
0.97 -1.0316638337E+00
0.98 -1.0210155946E+00
0.99 -1.0105944357E+00
1.0 -1.0003939248E+00
1.01 -9.9040756362E-01
1.02 -9.8062881373E-01
1.03 -9.7105112786E-01
1.04 -9.6166799258E-01
1.05 -9.5247296396E-01
1.06 -9.4345970570E-01
1.07 -9.3462201401E-01
1.08 -9.2595387728E-01
1.09 -9.1744951503E-01
1.1 -9.0910338802E-01
1.11 -9.0091022011E-01
1.12 -8.9286501123E-01
1.13 -8.8496311534E-01
1.14 -8.7720017933E-01
1.15 -8.6957220339E-01
1.16 -8.6207569549E-01
1.17 -8.5470745204E-01
1.18 -8.4746419571E-01
1.19 -8.4034257090E-01
1.2 -8.3333965592E-01
1.21 -8.2645251439E-01
1.22 -8.1967826860E-01
1.23 -8.1301416772E-01
1.24 -8.0645756122E-01
1.25 -8.0000586180E-01
1.26 -7.9365656153E-01
1.27 -7.8740725931E-01
1.28 -7.8125560373E-01
1.29 -7.7519931452E-01
1.3 -7.6923620862E-01
1.31 -7.6336414042E-01
1.32 -7.5758103869E-01
1.33 -7.5188491104E-01
1.34 -7.4627379191E-01
1.35 -7.4074580316E-01
1.36 -7.3529911713E-01
1.37 -7.2993193097E-01
1.38 -7.2464254083E-01
1.39 -7.1942925480E-01
1.4 -7.1429044170E-01
1.41 -7.0922453058E-01
1.42 -7.0422995567E-01
1.43 -6.9930524598E-01
1.44 -6.9444893153E-01
1.45 -6.8965960042E-01
1.46 -6.8493588368E-01
1.47 -6.8027642482E-01
1.48 -6.7567994371E-01
1.49 -6.7114514950E-01
1.5 -6.6667082744E-01
1.51 -6.6225576469E-01
1.52 -6.5789879563E-01
1.53 -6.5359878403E-01
1.54 -6.4935461102E-01
1.55 -6.4516521085E-01
1.56 -6.4102951001E-01
1.57 -6.3694650617E-01
1.58 -6.3291517271E-01
1.59 -6.2893456007E-01
1.6 -6.2500369524E-01
1.61 -6.2112167010E-01
1.62 -6.1728756409E-01
1.63 -6.1350050894E-01
1.64 -6.0975963229E-01
1.65 -6.0606410450E-01
1.66 -6.0241309735E-01
1.67 -5.9880581873E-01
1.68 -5.9524148071E-01
1.69 -5.9171932781E-01
1.7 -5.8823860873E-01
1.71 -5.8479860381E-01
1.72 -5.8139859494E-01
1.73 -5.7803789753E-01
1.74 -5.7471582352E-01
1.75 -5.7143172265E-01
1.76 -5.6818493395E-01
1.77 -5.6497484078E-01
1.78 -5.6180080665E-01
1.79 -5.5866224769E-01
1.8 -5.5555854958E-01
1.81 -5.5248915766E-01
1.82 -5.4945348577E-01
1.83 -5.4645099857E-01
1.84 -5.4348114159E-01
1.85 -5.4054339481E-01
1.86 -5.3763723582E-01
1.87 -5.3476215757E-01
1.88 -5.3191766938E-01
1.89 -5.2910327534E-01
1.9 -5.2631851574E-01
1.91 -5.2356290466E-01
1.92 -5.2083600721E-01
1.93 -5.1813736137E-01
1.94 -5.1546654032E-01
1.95 -5.1282311238E-01
1.96 -5.1020665528E-01
1.97 -5.0761676796E-01
1.98 -5.0505303169E-01
1.99 -5.0251507006E-01
2.0 -5.0000248186E-01
2.01 -4.9751489754E-01
2.02 -4.9505194425E-01
2.03 -4.9261325178E-01
2.04 -4.9019847592E-01
2.05 -4.8780724938E-01
2.06 -4.8543924477E-01
2.07 -4.8309411817E-01
2.08 -4.8077153855E-01
2.09 -4.7847119178E-01
2.1 -4.7619274271E-01
2.11 -4.7393589722E-01
2.12 -4.7170034108E-01
2.13 -4.6948577393E-01
2.14 -4.6729191042E-01
2.15 -4.6511844560E-01
2.16 -4.6296511109E-01
2.17 -4.6083162306E-01
2.18 -4.5871770434E-01
2.19 -4.5662309720E-01
2.2 -4.5454752543E-01
2.21 -4.5249073965E-01
2.22 -4.5045248705E-01
2.23 -4.4843250733E-01
2.24 -4.4643056904E-01
2.25 -4.4444642390E-01
2.26 -4.4247983529E-01
2.27 -4.4053057919E-01
2.28 -4.3859841536E-01
2.29 -4.3668312866E-01
2.3 -4.3478450093E-01
2.31 -4.3290230335E-01
2.32 -4.3103633682E-01
2.33 -4.2918638785E-01
2.34 -4.2735224556E-01
2.35 -4.2553371819E-01
2.36 -4.2373059971E-01
2.37 -4.2194269550E-01
2.38 -4.2016982070E-01
2.39 -4.1841177695E-01
2.4 -4.1666838401E-01
2.41 -4.1493946383E-01
2.42 -4.1322482578E-01
2.43 -4.1152430221E-01
2.44 -4.0983772186E-01
2.45 -4.0816490188E-01
2.46 -4.0650568555E-01
2.47 -4.0485990829E-01
2.48 -4.0322739539E-01
2.49 -4.0160799914E-01
2.5 -4.0000156159E-01
2.51 -3.9840791684E-01
2.52 -3.9682692406E-01
2.53 -3.9525843263E-01
2.54 -3.9370228418E-01
2.55 -3.9215834466E-01
2.56 -3.9062647084E-01
2.57 -3.8910651063E-01
2.58 -3.8759833674E-01
2.59 -3.8610181271E-01
2.6 -3.8461679345E-01
2.61 -3.8314315652E-01
2.62 -3.8168077242E-01
2.63 -3.8022950342E-01
2.64 -3.7878923043E-01
2.65 -3.7735983109E-01
2.66 -3.7594117505E-01
2.67 -3.7453314553E-01
2.68 -3.7313562728E-01
2.69 -3.7174849745E-01
2.7 -3.7037164056E-01
2.71 -3.6900494844E-01
2.72 -3.6764830580E-01
2.73 -3.6630159763E-01
2.74 -3.6496472271E-01
2.75 -3.6363757338E-01
2.76 -3.6232003442E-01
2.77 -3.6101201133E-01
2.78 -3.5971340165E-01
2.79 -3.5842409687E-01
2.8 -3.5714400151E-01
2.81 -3.5587302031E-01
2.82 -3.5461105235E-01
2.83 -3.5335799973E-01
2.84 -3.5211377441E-01
2.85 -3.5087828324E-01
2.86 -3.4965142545E-01
2.87 -3.4843311984E-01
2.88 -3.4722327759E-01
2.89 -3.4602180528E-01
2.9 -3.4482861774E-01
2.91 -3.4364363366E-01
2.92 -3.4246676740E-01
2.93 -3.4129792915E-01
2.94 -3.4013704473E-01
2.95 -3.3898403342E-01
2.96 -3.3783880983E-01
2.97 -3.3670129726E-01
2.98 -3.3557142167E-01
2.99 -3.3444910555E-01
3.0 -3.3333426617E-01
3.01 -3.3222683671E-01
3.02 -3.3112674378E-01
3.03 -3.3003391047E-01
3.04 -3.2894826484E-01
3.05 -3.2786974067E-01
3.06 -3.2679826800E-01
3.07 -3.2573377099E-01
3.08 -3.2467618728E-01
3.09 -3.2362545122E-01
3.1 -3.2258149481E-01
3.11 -3.2154424769E-01
3.12 -3.2051365176E-01
3.13 -3.1948964343E-01
3.14 -3.1847215594E-01
3.15 -3.1746112660E-01
3.16 -3.1645649840E-01
3.17 -3.1545821070E-01
3.18 -3.1446619830E-01
3.19 -3.1348040511E-01
3.2 -3.1250077533E-01
3.21 -3.1152725114E-01
3.22 -3.1055976917E-01
3.23 -3.0959827887E-01
3.24 -3.0864272584E-01
3.25 -3.0769305470E-01
3.26 -3.0674920490E-01
3.27 -3.0581112968E-01
3.28 -3.0487877650E-01
3.29 -3.0395209192E-01
3.3 -3.0303101950E-01
3.31 -3.0211551425E-01
3.32 -3.0120552609E-01
3.33 -3.0030100371E-01
3.34 -2.9940189395E-01
3.35 -2.9850815374E-01
3.36 -2.9761973534E-01
3.37 -2.9673658978E-01
3.38 -2.9585866634E-01
3.39 -2.9498592408E-01
3.4 -2.9411831745E-01
3.41 -2.9325579998E-01
3.42 -2.9239832271E-01
3.43 -2.9154584691E-01
3.44 -2.9069832916E-01
3.45 -2.8985572565E-01
3.46 -2.8901798847E-01
3.47 -2.8818508124E-01
3.48 -2.8735696257E-01
3.49 -2.8653359107E-01
3.5 -2.8571492042E-01
3.51 -2.8490091555E-01
3.52 -2.8409153738E-01
3.53 -2.8328674644E-01
3.54 -2.8248649937E-01
3.55 -2.8169076055E-01
3.56 -2.8089949377E-01
3.57 -2.8011266139E-01
3.58 -2.7933022316E-01
3.59 -2.7855214236E-01
3.6 -2.7777838570E-01
3.61 -2.7700891732E-01
3.62 -2.7624370025E-01
3.63 -2.7548269611E-01
3.64 -2.7472587464E-01
3.65 -2.7397320165E-01
3.66 -2.7322464294E-01
3.67 -2.7248016005E-01
3.68 -2.7173972376E-01
3.69 -2.7100330210E-01
3.7 -2.7027086248E-01
3.71 -2.6954236995E-01
3.72 -2.6881779240E-01
3.73 -2.6809710129E-01
3.74 -2.6738026554E-01
3.75 -2.6666725389E-01
3.76 -2.6595803101E-01
3.77 -2.6525257169E-01
3.78 -2.6455084631E-01
3.79 -2.6385282522E-01
3.8 -2.6315847630E-01
3.81 -2.6246777093E-01
3.82 -2.6178068304E-01
3.83 -2.6109718436E-01
3.84 -2.6041724664E-01
3.85 -2.5974083732E-01
3.86 -2.5906793361E-01
3.87 -2.5839850867E-01
3.88 -2.5773253557E-01
3.89 -2.5706998570E-01
3.9 -2.5641083146E-01
3.91 -2.5575504994E-01
3.92 -2.5510261544E-01
3.93 -2.5445350228E-01
3.94 -2.5380768174E-01
3.95 -2.5316513072E-01
3.96 -2.5252582601E-01
3.97 -2.5188974313E-01
3.98 -2.5125685758E-01
3.99 -2.5062714082E-01
4.0 -2.5000057347E-01
4.01 -2.4937713224E-01
4.02 -2.4875679379E-01
4.03 -2.4813953387E-01
4.04 -2.4752532704E-01
4.05 -2.4691415424E-01
4.06 -2.4630599320E-01
4.07 -2.4570082169E-01
4.08 -2.4509861588E-01
4.09 -2.4449935294E-01
4.1 -2.4390301415E-01
4.11 -2.4330957829E-01
4.12 -2.4271902412E-01
4.13 -2.4213132851E-01
4.14 -2.4154647059E-01
4.15 -2.4096443216E-01
4.16 -2.4038519299E-01
4.17 -2.3980873283E-01
4.18 -2.3923502939E-01
4.19 -2.3866406321E-01
4.2 -2.3809581678E-01
4.21 -2.3753027081E-01
4.22 -2.3696740602E-01
4.23 -2.3640720112E-01
4.24 -2.3584963748E-01
4.25 -2.3529469850E-01
4.26 -2.3474236579E-01
4.27 -2.3419262095E-01
4.28 -2.3364544390E-01
4.29 -2.3310081633E-01
4.3 -2.3255872270E-01
4.31 -2.3201914545E-01
4.32 -2.3148206708E-01
4.33 -2.3094746884E-01
4.34 -2.3041533226E-01
4.35 -2.2988564300E-01
4.36 -2.2935838435E-01
4.37 -2.2883353960E-01
4.38 -2.2831109154E-01
4.39 -2.2779102105E-01
4.4 -2.2727331518E-01
4.41 -2.2675795797E-01
4.42 -2.2624493350E-01
4.43 -2.2573422582E-01
4.44 -2.2522581602E-01
4.45 -2.2471969137E-01
4.46 -2.2421583708E-01
4.47 -2.2371423795E-01
4.48 -2.2321487880E-01
4.49 -2.2271774253E-01
4.5 -2.2222281475E-01
4.51 -2.2173008245E-01
4.52 -2.2123953114E-01
4.53 -2.2075114633E-01
4.54 -2.2026491292E-01
4.55 -2.1978081452E-01
4.56 -2.1929883993E-01
4.57 -2.1881897535E-01
4.58 -2.1834120696E-01
4.59 -2.1786552096E-01
4.6 -2.1739190119E-01
4.61 -2.1692033579E-01
4.62 -2.1645081244E-01
4.63 -2.1598331796E-01
4.64 -2.1551783920E-01
4.65 -2.1505436227E-01
4.66 -2.1459287245E-01
4.67 -2.1413335957E-01
4.68 -2.1367581108E-01
4.69 -2.1322021441E-01
4.7 -2.1276655702E-01
4.71 -2.1231482439E-01
4.72 -2.1186500521E-01
4.73 -2.1141708859E-01
4.74 -2.1097106256E-01
4.75 -2.1052691515E-01
4.76 -2.1008463438E-01
4.77 -2.0964420539E-01
4.78 -2.0920561966E-01
4.79 -2.0876886577E-01
4.8 -2.0833393231E-01
4.81 -2.0790080787E-01
4.82 -2.0746948018E-01
4.83 -2.0703993680E-01
4.84 -2.0661216887E-01
4.85 -2.0618616551E-01
4.86 -2.0576191585E-01
4.87 -2.0533940901E-01
4.88 -2.0491863264E-01
4.89 -2.0449957620E-01
4.9 -2.0408223067E-01
4.91 -2.0366658571E-01
4.92 -2.0325263092E-01
4.93 -2.0284035594E-01
4.94 -2.0242974856E-01
4.95 -2.0202079961E-01
4.96 -2.0161350014E-01
4.97 -2.0120784025E-01
4.98 -2.0080381006E-01
4.99 -2.0040139968E-01
5.0 -2.0000059722E-01
5.01 -1.9960139441E-01
5.02 -1.9920378253E-01
5.03 -1.9880775214E-01
5.04 -1.9841329383E-01
5.05 -1.9802039815E-01
5.06 -1.9762905371E-01
5.07 -1.9723925271E-01
5.08 -1.9685098682E-01
5.09 -1.9646424704E-01
5.1 -1.9607902439E-01
5.11 -1.9569530988E-01
5.12 -1.9531309276E-01
5.13 -1.9493236526E-01
5.14 -1.9455311963E-01
5.15 -1.9417534728E-01
5.16 -1.9379903967E-01
5.17 -1.9342418820E-01
5.18 -1.9305078292E-01
5.19 -1.9267881573E-01
5.2 -1.9230827959E-01
5.21 -1.9193916633E-01
5.22 -1.9157146777E-01
5.23 -1.9120517574E-01
5.24 -1.9084028123E-01
5.25 -1.9047677542E-01
5.26 -1.9011465212E-01
5.27 -1.8975390356E-01
5.28 -1.8939452193E-01
5.29 -1.8903649944E-01
5.3 -1.8867982817E-01
5.31 -1.8832449826E-01
5.32 -1.8797050449E-01
5.33 -1.8761783944E-01
5.34 -1.8726649568E-01
5.35 -1.8691646578E-01
5.36 -1.8656774232E-01
5.37 -1.8622031624E-01
5.38 -1.8587418126E-01
5.39 -1.8552933101E-01
5.4 -1.8518575841E-01
5.41 -1.8484345638E-01
5.42 -1.8450241783E-01
5.43 -1.8416263508E-01
5.44 -1.8382410006E-01
5.45 -1.8348680768E-01
5.46 -1.8315075120E-01
5.47 -1.8281592386E-01
5.48 -1.8248231892E-01
5.49 -1.8214992962E-01
5.5 -1.8181874753E-01
5.51 -1.8148876726E-01
5.52 -1.8115998290E-01
5.53 -1.8083238804E-01
5.54 -1.8050597623E-01
5.55 -1.8018074104E-01
5.56 -1.7985667567E-01
5.57 -1.7953377228E-01
5.58 -1.7921202652E-01
5.59 -1.7889143227E-01
5.6 -1.7857198339E-01
5.61 -1.7825367374E-01
5.62 -1.7793649719E-01
5.63 -1.7762044654E-01
5.64 -1.7730551576E-01
5.65 -1.7699170008E-01
5.66 -1.7667899365E-01
5.67 -1.7636739062E-01
5.68 -1.7605688513E-01
5.69 -1.7574747134E-01
5.7 -1.7543914186E-01
5.71 -1.7513189202E-01
5.72 -1.7482571679E-01
5.73 -1.7452061059E-01
5.74 -1.7421656784E-01
5.75 -1.7391358296E-01
5.76 -1.7361165037E-01
5.77 -1.7331076267E-01
5.78 -1.7301091614E-01
5.79 -1.7271210566E-01
5.8 -1.7241432591E-01
5.81 -1.7211757156E-01
5.82 -1.7182183730E-01
5.83 -1.7152711781E-01
5.84 -1.7123340583E-01
5.85 -1.7094069821E-01
5.86 -1.7064898988E-01
5.87 -1.7035827579E-01
5.88 -1.7006855086E-01
5.89 -1.6977981002E-01
5.9 -1.6949204819E-01
5.91 -1.6920525840E-01
5.92 -1.6891943771E-01
5.93 -1.6863458129E-01
5.94 -1.6835068431E-01
5.95 -1.6806774192E-01
5.96 -1.6778574931E-01
5.97 -1.6750470162E-01
5.98 -1.6722459231E-01
5.99 -1.6694541831E-01
6.0 -1.6666717516E-01
6.01 -1.6638985825E-01
