# 
#  This pseudopotential file has been produced using the code
#  ONCVPSP (Optimized Norm-Conservinng Vanderbilt PSeudopotential)
#  scalar-relativistic version 2.1.1, 03/26/2014 by D. R. Hamann
#  as distributed by Mat-Sim Research at www.mat-simresearch.com.
#  Reference:
#    D. R. Hamann, Phys. Rev. B 88, 085117 (2013)
#    DOI:https://doi.org/10.1103/PhysRevB.88.085117
#
#
#  Pseudopotential generation was done by M. Schlipf and F. Gygi using
#  the input parameters obtained from their optimization algorithm.
#  Reference:
#    M. Schlipf and F. Gygi, Computer Physics Communications (2015)
#    DOI: 10.1016/j.cpc.2015.05.011
#    http://dx.doi.org/10.1016/j.cpc.2015.05.011
#    http://www.quantum-simulation.org
#  License:
#  This work is licensed under the Creative Commons Attribution-ShareAlike
#  4.0 International License. To view a copy of this license, visit
#  http://creativecommons.org/licenses/by-sa/4.0/ or send a letter to
#  Creative Commons, PO Box 1866, Mountain View, CA 94042, USA.
#
#
#  Format:
#    The format of this file has been adapted to match MGmol pseudopotential
#    parser using the script convertONCVPSP_SG15.py
# 
# 
F_ONCV_PBE-1
#
color
#radii of balls and covalent bonds
-1.  -1.
# Nlcc flag
0
# Atomic number
9
# Atomic mass
18.99799919
# Number of valence electrons
7
#Gaussian core charge parameter rc
1.0
# Number of potentials
3
# l-value for state which is local, then type of potential format
2 3
# Local potential radius
3.2
# Non-local potential radius
3.2
# number of points in radial grid
602
# VANDERBILT-KLEINMAN-BYLANDER PROJECTORs
# l, nproj
0 2     0.5528921137E+01     0.8301116699E+00 
1 2    -0.4173436783E+01    -0.1606240210E+01 
# l= 0
0.0 -8.2794756445 0.84980753571 
0.01 -8.2765367661 0.84977745027 
0.02 -8.2677196383 0.84975377498 
0.03 -8.2530244376 0.84966885831 
0.04 -8.2324513402 0.84945504871 
0.05 -8.2060009077 0.84901869955 
0.06 -8.1736743969 0.84824122295 
0.07 -8.1354741533 0.84698042824 
0.08 -8.0914040831 0.84507213275 
0.09 -8.0414701985 0.84233203034 
0.1 -7.9856812308 0.83855780035 
0.11 -7.924049304 0.83353143783 
0.12 -7.8565906622 0.82702178346 
0.13 -7.7833264414 0.81878722984 
0.14 -7.7042834789 0.80857857908 
0.15 -7.619495149 0.79614202503 
0.16 -7.5290022169 0.78122223241 
0.17 -7.4328536997 0.76356548362 
0.18 -7.3311077253 0.74292286343 
0.19 -7.2238323793 0.71905345309 
0.2 -7.1111065243 0.69172749745 
0.21 -6.9930205924 0.66072952568 
0.22 -6.8696773254 0.62586138001 
0.23 -6.7411924679 0.5869451384 
0.24 -6.6076953884 0.54382588466 
0.25 -6.4693296376 0.49637432314 
0.26 -6.3262534114 0.4444891748 
0.27 -6.1786399392 0.38809937985 
0.28 -6.0266777548 0.32716601667 
0.29 -5.8705708784 0.26168398387 
0.3 -5.710538882 0.1916833869 
0.31 -5.5468168395 0.11723062174 
0.32 -5.3796551488 0.038429120873 
0.33 -5.2093192387 -0.04458020955 
0.34 -5.0360891787 -0.13161881594 
0.35 -4.8602590648 -0.22247092545 
0.36 -4.6821364415 -0.31688388374 
0.37 -4.502041428 -0.41456930279 
0.38 -4.3203058212 -0.51520428717 
0.39 -4.1372720981 -0.6184329207 
0.4 -3.9532922194 -0.72386834265 
0.41 -3.7687263898 -0.83109493782 
0.42 -3.5839417015 -0.93967087044 
0.43 -3.3993106839 -1.0491308951 
0.44 -3.2152097693 -1.1589894217 
0.45 -3.0320176847 -1.2687438094 
0.46 -2.8501137806 -1.3778778647 
0.47 -2.6698763068 -1.485865514 
0.48 -2.4916806673 -1.5921746125 
0.49 -2.31589762 -1.6962708398 
0.5 -2.142891442 -1.7976217564 
0.51 -1.9730181741 -1.8957008233 
0.52 -1.8066239093 -1.9899913173 
0.53 -1.6440427518 -2.0799907126 
0.54 -1.4855954792 -2.165214158 
0.55 -1.3315875708 -2.2451987261 
0.56 -1.1823077388 -2.3195069829 
0.57 -1.0380264712 -2.3877304225 
0.58 -0.89899442974 -2.4494931304 
0.59 -0.76544128752 -2.504454641 
0.6 -0.6375745988 -2.5523126767 
0.61 -0.51557820424 -2.5928066369 
0.62 -0.39961243593 -2.6257178236 
0.63 -0.2898117451 -2.6508741998 
0.64 -0.18628522275 -2.6681498717 
0.65 -0.089116349382 -2.6774658399 
0.66 0.0016388505325 -2.6787936233 
0.67 0.08595058428 -2.6721531466 
0.68 0.16381549381 -2.6576131591 
0.69 0.23525664301 -2.6352911749 
0.7 0.30032375699 -2.6053537788 
0.71 0.35909181524 -2.5680138129 
0.72 0.41166069038 -2.5235294054 
0.73 0.45815428535 -2.4722019932 
0.74 0.4987194047 -2.414373794 
0.75 0.5335253348 -2.3504264068 
0.76 0.56276172329 -2.280776355 
0.77 0.58663745857 -2.2058723191 
0.78 0.60537914071 -2.1261915803 
0.79 0.61922944044 -2.0422362055 
0.8 0.62844535775 -1.9545290064 
0.81 0.63329639245 -1.8636093017 
0.82 0.63406263941 -1.7700285155 
0.83 0.63103282155 -1.6743456438 
0.84 0.62450227384 -1.5771226233 
0.85 0.61477089139 -1.4789196346 
0.86 0.60214105513 -1.3802903728 
0.87 0.58691554773 -1.2817773184 
0.88 0.56939547272 -1.1839070389 
0.89 0.54987818912 -1.0871855522 
0.9 0.52865527363 -0.99209378017 
0.91 0.50601052181 -0.89908312175 
0.92 0.4822179995 -0.80857116982 
0.93 0.45754015479 -0.72093759826 
0.94 0.43222600061 -0.63652024113 
0.95 0.40650937706 -0.55561138512 
0.96 0.38060742929 -0.47845464781 
0.97 0.35471936267 -0.40524250889 
0.98 0.32902335873 -0.33610892011 
0.99 0.30368011576 -0.2711469021 
1.0 0.27883485469 -0.21042079306 
1.01 0.25461812543 -0.15397042458 
1.02 0.23114588263 -0.10181117462 
1.03 0.20852026596 -0.053935211269 
1.04 0.18682817496 -0.010309209153 
1.05 0.16614247392 0.029123394252 
1.06 0.1465228603 0.064440677345 
1.07 0.12801606285 0.095741564555 
1.08 0.11065715204 0.123143403 
1.09 0.094468037085 0.14678375851 
1.1 0.079459415283 0.16681664738 
1.11 0.065631998524 0.18341011489 
1.12 0.052977323707 0.19674455409 
1.13 0.041477614433 0.20701217096 
1.14 0.031106096721 0.21441514869 
1.15 0.021829567263 0.21916173959 
1.16 0.013608959346 0.22146521272 
1.17 0.0063987420769 0.22154295442 
1.18 0.00014859843011 0.21961312194 
1.19 -0.0051951256557 0.21589302521 
1.2 -0.0096890011762 0.21059896874 
1.21 -0.013392786809 0.20394147026 
1.22 -0.016367079719 0.19612563954 
1.23 -0.018673448248 0.18735171297 
1.24 -0.020373820607 0.17780880443 
1.25 -0.02152930995 0.16767625238 
1.26 -0.02220048129 0.15712614961 
1.27 -0.022446032553 0.14631565038 
1.28 -0.022322291984 0.13538890322 
1.29 -0.02188423053 0.12448230794 
1.3 -0.02118299321 0.11371356616 
1.31 -0.020266528698 0.10318721047 
1.32 -0.01918121802 0.093000776578 
1.33 -0.017967566308 0.083228958508 
1.34 -0.016663581079 0.073937895544 
1.35 -0.015304696564 0.065184117495 
1.36 -0.013919988505 0.05700307782 
1.37 -0.012537302758 0.049426499139 
1.38 -0.011179673326 0.042470901491 
1.39 -0.009865895732 0.036140899254 
1.4 -0.0086140045997 0.030438565651 
1.41 -0.0074351981541 0.025347847323 
1.42 -0.0063403457607 0.020852318313 
1.43 -0.0053364463104 0.016925947703 
1.44 -0.0044273578567 0.013536638886 
1.45 -0.0036164080417 0.010650700932 
1.46 -0.0029022345751 0.0082268505351 
1.47 -0.0022839167648 0.006224727217 
1.48 -0.0017573111698 0.0046001942763 
1.49 -0.0013177126241 0.0033098542607 
1.5 -0.00095910414187 0.0023093675108 
1.51 -0.00067420920735 0.0015569766588 
1.52 -0.00045563200127 0.0010100067533 
1.53 -0.00029471783246 0.00063189926382 
1.54 -0.00018305942885 0.00038428562127 
1.55 -0.00011156279552 0.00023707516327 
1.56 -7.1290335808e-05 0.00015927651386 
1.57 -5.4375320412e-05 0.00013083692355 
1.58 -5.0149317608e-05 0.00012490780539 
1.59 -3.4856936935e-05 8.7712707944e-05 
1.6 -8.4857102173e-06 2.1519623788e-05 
1.61 2.9953385372e-06 -7.4920356561e-06 
1.62 1.2628524957e-06 -3.1586866755e-06 
1.63 0.0 0.0 
1.64 0.0 0.0 
1.65 0.0 0.0 
1.66 0.0 0.0 
1.67 0.0 0.0 
1.68 0.0 0.0 
1.69 0.0 0.0 
1.7 0.0 0.0 
1.71 0.0 0.0 
1.72 0.0 0.0 
1.73 0.0 0.0 
1.74 0.0 0.0 
1.75 0.0 0.0 
1.76 0.0 0.0 
1.77 0.0 0.0 
1.78 0.0 0.0 
1.79 0.0 0.0 
1.8 0.0 0.0 
1.81 0.0 0.0 
1.82 0.0 0.0 
1.83 0.0 0.0 
1.84 0.0 0.0 
1.85 0.0 0.0 
1.86 0.0 0.0 
1.87 0.0 0.0 
1.88 0.0 0.0 
1.89 0.0 0.0 
1.9 0.0 0.0 
1.91 0.0 0.0 
1.92 0.0 0.0 
1.93 0.0 0.0 
1.94 0.0 0.0 
1.95 0.0 0.0 
1.96 0.0 0.0 
1.97 0.0 0.0 
1.98 0.0 0.0 
1.99 0.0 0.0 
2.0 0.0 0.0 
2.01 0.0 0.0 
2.02 0.0 0.0 
2.03 0.0 0.0 
2.04 0.0 0.0 
2.05 0.0 0.0 
2.06 0.0 0.0 
2.07 0.0 0.0 
2.08 0.0 0.0 
2.09 0.0 0.0 
2.1 0.0 0.0 
2.11 0.0 0.0 
2.12 0.0 0.0 
2.13 0.0 0.0 
2.14 0.0 0.0 
2.15 0.0 0.0 
2.16 0.0 0.0 
2.17 0.0 0.0 
2.18 0.0 0.0 
2.19 0.0 0.0 
2.2 0.0 0.0 
2.21 0.0 0.0 
2.22 0.0 0.0 
2.23 0.0 0.0 
2.24 0.0 0.0 
2.25 0.0 0.0 
2.26 0.0 0.0 
2.27 0.0 0.0 
2.28 0.0 0.0 
2.29 0.0 0.0 
2.3 0.0 0.0 
2.31 0.0 0.0 
2.32 0.0 0.0 
2.33 0.0 0.0 
2.34 0.0 0.0 
2.35 0.0 0.0 
2.36 0.0 0.0 
2.37 0.0 0.0 
2.38 0.0 0.0 
2.39 0.0 0.0 
2.4 0.0 0.0 
2.41 0.0 0.0 
2.42 0.0 0.0 
2.43 0.0 0.0 
2.44 0.0 0.0 
2.45 0.0 0.0 
2.46 0.0 0.0 
2.47 0.0 0.0 
2.48 0.0 0.0 
2.49 0.0 0.0 
2.5 0.0 0.0 
2.51 0.0 0.0 
2.52 0.0 0.0 
2.53 0.0 0.0 
2.54 0.0 0.0 
2.55 0.0 0.0 
2.56 0.0 0.0 
2.57 0.0 0.0 
2.58 0.0 0.0 
2.59 0.0 0.0 
2.6 0.0 0.0 
2.61 0.0 0.0 
2.62 0.0 0.0 
2.63 0.0 0.0 
2.64 0.0 0.0 
2.65 0.0 0.0 
2.66 0.0 0.0 
2.67 0.0 0.0 
2.68 0.0 0.0 
2.69 0.0 0.0 
2.7 0.0 0.0 
2.71 0.0 0.0 
2.72 0.0 0.0 
2.73 0.0 0.0 
2.74 0.0 0.0 
2.75 0.0 0.0 
2.76 0.0 0.0 
2.77 0.0 0.0 
2.78 0.0 0.0 
2.79 0.0 0.0 
2.8 0.0 0.0 
2.81 0.0 0.0 
2.82 0.0 0.0 
2.83 0.0 0.0 
2.84 0.0 0.0 
2.85 0.0 0.0 
2.86 0.0 0.0 
2.87 0.0 0.0 
2.88 0.0 0.0 
2.89 0.0 0.0 
2.9 0.0 0.0 
2.91 0.0 0.0 
2.92 0.0 0.0 
2.93 0.0 0.0 
2.94 0.0 0.0 
2.95 0.0 0.0 
2.96 0.0 0.0 
2.97 0.0 0.0 
2.98 0.0 0.0 
2.99 0.0 0.0 
3.0 0.0 0.0 
3.01 0.0 0.0 
3.02 0.0 0.0 
3.03 0.0 0.0 
3.04 0.0 0.0 
3.05 0.0 0.0 
3.06 0.0 0.0 
3.07 0.0 0.0 
3.08 0.0 0.0 
3.09 0.0 0.0 
3.1 0.0 0.0 
3.11 0.0 0.0 
3.12 0.0 0.0 
3.13 0.0 0.0 
3.14 0.0 0.0 
3.15 0.0 0.0 
3.16 0.0 0.0 
3.17 0.0 0.0 
3.18 0.0 0.0 
3.19 0.0 0.0 
3.2 0.0 0.0 
3.21 0.0 0.0 
3.22 0.0 0.0 
3.23 0.0 0.0 
3.24 0.0 0.0 
3.25 0.0 0.0 
3.26 0.0 0.0 
3.27 0.0 0.0 
3.28 0.0 0.0 
3.29 0.0 0.0 
3.3 0.0 0.0 
3.31 0.0 0.0 
3.32 0.0 0.0 
3.33 0.0 0.0 
3.34 0.0 0.0 
3.35 0.0 0.0 
3.36 0.0 0.0 
3.37 0.0 0.0 
3.38 0.0 0.0 
3.39 0.0 0.0 
3.4 0.0 0.0 
3.41 0.0 0.0 
3.42 0.0 0.0 
3.43 0.0 0.0 
3.44 0.0 0.0 
3.45 0.0 0.0 
3.46 0.0 0.0 
3.47 0.0 0.0 
3.48 0.0 0.0 
3.49 0.0 0.0 
3.5 0.0 0.0 
3.51 0.0 0.0 
3.52 0.0 0.0 
3.53 0.0 0.0 
3.54 0.0 0.0 
3.55 0.0 0.0 
3.56 0.0 0.0 
3.57 0.0 0.0 
3.58 0.0 0.0 
3.59 0.0 0.0 
3.6 0.0 0.0 
3.61 0.0 0.0 
3.62 0.0 0.0 
3.63 0.0 0.0 
3.64 0.0 0.0 
3.65 0.0 0.0 
3.66 0.0 0.0 
3.67 0.0 0.0 
3.68 0.0 0.0 
3.69 0.0 0.0 
3.7 0.0 0.0 
3.71 0.0 0.0 
3.72 0.0 0.0 
3.73 0.0 0.0 
3.74 0.0 0.0 
3.75 0.0 0.0 
3.76 0.0 0.0 
3.77 0.0 0.0 
3.78 0.0 0.0 
3.79 0.0 0.0 
3.8 0.0 0.0 
3.81 0.0 0.0 
3.82 0.0 0.0 
3.83 0.0 0.0 
3.84 0.0 0.0 
3.85 0.0 0.0 
3.86 0.0 0.0 
3.87 0.0 0.0 
3.88 0.0 0.0 
3.89 0.0 0.0 
3.9 0.0 0.0 
3.91 0.0 0.0 
3.92 0.0 0.0 
3.93 0.0 0.0 
3.94 0.0 0.0 
3.95 0.0 0.0 
3.96 0.0 0.0 
3.97 0.0 0.0 
3.98 0.0 0.0 
3.99 0.0 0.0 
4.0 0.0 0.0 
4.01 0.0 0.0 
4.02 0.0 0.0 
4.03 0.0 0.0 
4.04 0.0 0.0 
4.05 0.0 0.0 
4.06 0.0 0.0 
4.07 0.0 0.0 
4.08 0.0 0.0 
4.09 0.0 0.0 
4.1 0.0 0.0 
4.11 0.0 0.0 
4.12 0.0 0.0 
4.13 0.0 0.0 
4.14 0.0 0.0 
4.15 0.0 0.0 
4.16 0.0 0.0 
4.17 0.0 0.0 
4.18 0.0 0.0 
4.19 0.0 0.0 
4.2 0.0 0.0 
4.21 0.0 0.0 
4.22 0.0 0.0 
4.23 0.0 0.0 
4.24 0.0 0.0 
4.25 0.0 0.0 
4.26 0.0 0.0 
4.27 0.0 0.0 
4.28 0.0 0.0 
4.29 0.0 0.0 
4.3 0.0 0.0 
4.31 0.0 0.0 
4.32 0.0 0.0 
4.33 0.0 0.0 
4.34 0.0 0.0 
4.35 0.0 0.0 
4.36 0.0 0.0 
4.37 0.0 0.0 
4.38 0.0 0.0 
4.39 0.0 0.0 
4.4 0.0 0.0 
4.41 0.0 0.0 
4.42 0.0 0.0 
4.43 0.0 0.0 
4.44 0.0 0.0 
4.45 0.0 0.0 
4.46 0.0 0.0 
4.47 0.0 0.0 
4.48 0.0 0.0 
4.49 0.0 0.0 
4.5 0.0 0.0 
4.51 0.0 0.0 
4.52 0.0 0.0 
4.53 0.0 0.0 
4.54 0.0 0.0 
4.55 0.0 0.0 
4.56 0.0 0.0 
4.57 0.0 0.0 
4.58 0.0 0.0 
4.59 0.0 0.0 
4.6 0.0 0.0 
4.61 0.0 0.0 
4.62 0.0 0.0 
4.63 0.0 0.0 
4.64 0.0 0.0 
4.65 0.0 0.0 
4.66 0.0 0.0 
4.67 0.0 0.0 
4.68 0.0 0.0 
4.69 0.0 0.0 
4.7 0.0 0.0 
4.71 0.0 0.0 
4.72 0.0 0.0 
4.73 0.0 0.0 
4.74 0.0 0.0 
4.75 0.0 0.0 
4.76 0.0 0.0 
4.77 0.0 0.0 
4.78 0.0 0.0 
4.79 0.0 0.0 
4.8 0.0 0.0 
4.81 0.0 0.0 
4.82 0.0 0.0 
4.83 0.0 0.0 
4.84 0.0 0.0 
4.85 0.0 0.0 
4.86 0.0 0.0 
4.87 0.0 0.0 
4.88 0.0 0.0 
4.89 0.0 0.0 
4.9 0.0 0.0 
4.91 0.0 0.0 
4.92 0.0 0.0 
4.93 0.0 0.0 
4.94 0.0 0.0 
4.95 0.0 0.0 
4.96 0.0 0.0 
4.97 0.0 0.0 
4.98 0.0 0.0 
4.99 0.0 0.0 
5.0 0.0 0.0 
5.01 0.0 0.0 
5.02 0.0 0.0 
5.03 0.0 0.0 
5.04 0.0 0.0 
5.05 0.0 0.0 
5.06 0.0 0.0 
5.07 0.0 0.0 
5.08 0.0 0.0 
5.09 0.0 0.0 
5.1 0.0 0.0 
5.11 0.0 0.0 
5.12 0.0 0.0 
5.13 0.0 0.0 
5.14 0.0 0.0 
5.15 0.0 0.0 
5.16 0.0 0.0 
5.17 0.0 0.0 
5.18 0.0 0.0 
5.19 0.0 0.0 
5.2 0.0 0.0 
5.21 0.0 0.0 
5.22 0.0 0.0 
5.23 0.0 0.0 
5.24 0.0 0.0 
5.25 0.0 0.0 
5.26 0.0 0.0 
5.27 0.0 0.0 
5.28 0.0 0.0 
5.29 0.0 0.0 
5.3 0.0 0.0 
5.31 0.0 0.0 
5.32 0.0 0.0 
5.33 0.0 0.0 
5.34 0.0 0.0 
5.35 0.0 0.0 
5.36 0.0 0.0 
5.37 0.0 0.0 
5.38 0.0 0.0 
5.39 0.0 0.0 
5.4 0.0 0.0 
5.41 0.0 0.0 
5.42 0.0 0.0 
5.43 0.0 0.0 
5.44 0.0 0.0 
5.45 0.0 0.0 
5.46 0.0 0.0 
5.47 0.0 0.0 
5.48 0.0 0.0 
5.49 0.0 0.0 
5.5 0.0 0.0 
5.51 0.0 0.0 
5.52 0.0 0.0 
5.53 0.0 0.0 
5.54 0.0 0.0 
5.55 0.0 0.0 
5.56 0.0 0.0 
5.57 0.0 0.0 
5.58 0.0 0.0 
5.59 0.0 0.0 
5.6 0.0 0.0 
5.61 0.0 0.0 
5.62 0.0 0.0 
5.63 0.0 0.0 
5.64 0.0 0.0 
5.65 0.0 0.0 
5.66 0.0 0.0 
5.67 0.0 0.0 
5.68 0.0 0.0 
5.69 0.0 0.0 
5.7 0.0 0.0 
5.71 0.0 0.0 
5.72 0.0 0.0 
5.73 0.0 0.0 
5.74 0.0 0.0 
5.75 0.0 0.0 
5.76 0.0 0.0 
5.77 0.0 0.0 
5.78 0.0 0.0 
5.79 0.0 0.0 
5.8 0.0 0.0 
5.81 0.0 0.0 
5.82 0.0 0.0 
5.83 0.0 0.0 
5.84 0.0 0.0 
5.85 0.0 0.0 
5.86 0.0 0.0 
5.87 0.0 0.0 
5.88 0.0 0.0 
5.89 0.0 0.0 
5.9 0.0 0.0 
5.91 0.0 0.0 
5.92 0.0 0.0 
5.93 0.0 0.0 
5.94 0.0 0.0 
5.95 0.0 0.0 
5.96 0.0 0.0 
5.97 0.0 0.0 
5.98 0.0 0.0 
5.99 0.0 0.0 
6.0 0.0 0.0 
6.01 0.0 0.0 
# l= 1
0.0 0.0 0.0 
0.01 0.19611468028 0.059773221541 
0.02 0.39186418205 0.1192918085 
0.03 0.58688323346 0.17830130834 
0.04 0.78080638941 0.23654764271 
0.05 0.97326797798 0.29377731984 
0.06 1.1639020862 0.34973767663 
0.07 1.3523425973 0.40417715978 
0.08 1.538223291 0.45684565438 
0.09 1.721178017 0.50749486787 
0.1 1.9008409525 0.55587877593 
0.11 2.0768469509 0.60175413637 
0.12 2.2488319889 0.64488107541 
0.13 2.4164337189 0.68502374981 
0.14 2.5792921292 0.72195108688 
0.15 2.737050316 0.75543760291 
0.16 2.889355367 0.78526429913 
0.17 3.0358593567 0.81121963299 
0.18 3.1762204497 0.83310056062 
0.19 3.3101041099 0.85071364593 
0.2 3.4371844057 0.86387622743 
0.21 3.5571454088 0.87241763825 
0.22 3.669682672 0.87618046498 
0.23 3.7745047793 0.87502183896 
0.24 3.8713349521 0.86881474363 
0.25 3.9599127033 0.8574493304 
0.26 4.0399955165 0.840834221 
0.27 4.1113605456 0.81889779228 
0.28 4.1738063028 0.79158941401 
0.29 4.2271543329 0.75888063775 
0.3 4.2712508471 0.72076631263 
0.31 4.3059683003 0.67726561352 
0.32 4.3312068867 0.62842296194 
0.33 4.3468959477 0.57430883167 
0.34 4.3529952856 0.51502043149 
0.35 4.3494962818 0.45068219586 
0.36 4.3364229793 0.3814461845 
0.37 4.3138328842 0.30749223145 
0.38 4.2818176549 0.22902795228 
0.39 4.2405036213 0.14628856047 
0.4 4.19005203 0.059536446602 
0.41 4.1306591281 -0.030939425839 
0.42 4.0625560107 -0.12482434579 
0.43 3.9860082394 -0.22177889633 
0.44 3.9013152266 -0.32144021273 
0.45 3.8088093834 -0.42342345479 
0.46 3.7088550307 -0.52732348904 
0.47 3.6018470754 -0.63271677357 
0.48 3.4882094683 -0.73916341121 
0.49 3.368393424 -0.84620943807 
0.5 3.2428754017 -0.95338928774 
0.51 3.1121549434 -1.0602283072 
0.52 2.9767523611 -1.1662453907 
0.53 2.8372059378 -1.2709561662 
0.54 2.6940695367 -1.3738754458 
0.55 2.5479094801 -1.4745206203 
0.56 2.3993016841 -1.572414548 
0.57 2.2488286492 -1.6670885783 
0.58 2.0970761397 -1.7580858356 
0.59 1.9446301411 -1.8449641009 
0.6 1.7920737212 -1.9272987265 
0.61 1.6399832624 -2.0046861647 
0.62 1.4889264937 -2.0767454692 
0.63 1.3394576509 -2.1431227887 
0.64 1.1921156661 -2.2034925701 
0.65 1.0474215193 -2.2575596422 
0.66 0.90587365107 -2.3050630907 
0.67 0.76794685643 -2.3457766197 
0.68 0.63408955559 -2.3795104785 
0.69 0.50472128743 -2.4061130762 
0.7 0.38022984882 -2.4254727837 
0.71 0.26097051646 -2.4375178076 
0.72 0.14726402032 -2.4422171165 
0.73 0.039395191171 -2.4395806879 
0.74 -0.062387965865 -2.4296593388 
0.75 -0.15787613685 -2.4125451287 
0.76 -0.24689812677 -2.3883698362 
0.77 -0.32932155428 -2.3573043247 
0.78 -0.40505288261 -2.3195573158 
0.79 -0.47403717587 -2.2753738814 
0.8 -0.53625758694 -2.225033672 
0.81 -0.59173458562 -2.1688488967 
0.82 -0.64052493865 -2.1071620742 
0.83 -0.68272045493 -2.0403435792 
0.84 -0.71844651185 -1.9687890061 
0.85 -0.74786038044 -1.8929163772 
0.86 -0.77114936861 -1.8131632224 
0.87 -0.7885288038 -1.7299835599 
0.88 -0.80023987709 -1.6438448071 
0.89 -0.80654737275 -1.5552246525 
0.9 -0.80773730748 -1.4646079213 
0.91 -0.80411450513 -1.3724834639 
0.92 -0.79600013259 -1.2793411015 
0.93 -0.78372922357 -1.1856686587 
0.94 -0.76764821646 -1.0919491131 
0.95 -0.74811253254 -0.99865789349 
0.96 -0.72548432154 -0.90626053491 
0.97 -0.70013048771 -0.81521079737 
0.98 -0.67241920756 -0.72594625278 
0.99 -0.64271657646 -0.63888256384 
1.0 -0.61138147417 -0.55440518425 
1.01 -0.57876242326 -0.47286605325 
1.02 -0.54519533335 -0.39458238965 
1.03 -0.51100283175 -0.31983761851 
1.04 -0.47648907766 -0.24887590562 
1.05 -0.44193969832 -0.18190434329 
1.06 -0.40762146612 -0.11909413163 
1.07 -0.37378062096 -0.060579932004 
1.08 -0.3406439206 -0.0064623830546 
1.09 -0.30841286705 0.043197059526 
1.1 -0.27726609191 0.088371481038 
1.11 -0.24736057448 0.1290659345 
1.12 -0.21883207479 0.16531596416 
1.13 -0.19179292704 0.19718850141 
1.14 -0.16633053894 0.22478101421 
1.15 -0.14251315777 0.24821505145 
1.16 -0.12039039207 0.26763514046 
1.17 -0.099989334157 0.28320985896 
1.18 -0.081317801797 0.29512693018 
1.19 -0.064368192945 0.30358972595 
1.2 -0.049118459703 0.30881659254 
1.21 -0.035527171654 0.31103805802 
1.22 -0.023542718758 0.310492624 
1.23 -0.013102840813 0.30742732882 
1.24 -0.0041325531768 0.30209169765 
1.25 0.003450259986 0.29473603844 
1.26 0.0097343445906 0.28561358324 
1.27 0.014814882503 0.27497138682 
1.28 0.018789938527 0.26305001084 
1.29 0.021761139097 0.25008934685 
1.3 0.023830473436 0.23631382034 
1.31 0.025098903251 0.2219371055 
1.32 0.02566911484 0.20717043791 
1.33 0.025637230037 0.19219847884 
1.34 0.025097471788 0.17719792477 
1.35 0.024142415297 0.16233619437 
1.36 0.022853553459 0.14775055186 
1.37 0.021312030858 0.13357533978 
1.38 0.019590132668 0.11992188991 
1.39 0.017751229941 0.10688108471 
1.4 0.015858849439 0.094541681047 
1.41 0.013959492911 0.082956531822 
1.42 0.012099816196 0.072177668145 
1.43 0.010316547716 0.062236320066 
1.44 0.0086374653305 0.05314652927 
1.45 0.0070895699795 0.044919062151 
1.46 0.005685027052 0.03753825544 
1.47 0.0044376634612 0.030989990925 
1.48 0.0033504097979 0.025241400393 
1.49 0.0024240106711 0.020255658237 
1.5 0.001654363771 0.015987261499 
1.51 0.0010323665364 0.012383994665 
1.52 0.00054809117716 0.0093905649317 
1.53 0.00018660538428 0.0069473005128 
1.54 -6.6654928901e-05 0.0049925969914 
1.55 -0.00022868114344 0.0034657092279 
1.56 -0.00031631559026 0.0023043914581 
1.57 -0.00034632978729 0.00145054009 
1.58 -0.0003347998456 0.00084725649474 
1.59 -0.00029666375812 0.00044219652363 
1.6 -0.00024454616535 0.0001886793343 
1.61 -0.00019006815457 4.2966135699e-05 
1.62 -0.00014045187948 -2.8036561174e-05 
1.63 -0.00010270743611 -5.7005461286e-05 
1.64 -7.7522876258e-05 -6.1661765739e-05 
1.65 -6.8730301795e-05 -6.4143630109e-05 
1.66 -6.4266290208e-05 -6.0703761223e-05 
1.67 -3.8124819369e-05 -3.6152974249e-05 
1.68 -5.8971767539e-06 -5.6585489254e-06 
1.69 4.1471599742e-06 3.8767350812e-06 
1.7 1.2608128938e-06 1.1785987535e-06 
1.71 0.0 0.0 
1.72 0.0 0.0 
1.73 0.0 0.0 
1.74 0.0 0.0 
1.75 0.0 0.0 
1.76 0.0 0.0 
1.77 0.0 0.0 
1.78 0.0 0.0 
1.79 0.0 0.0 
1.8 0.0 0.0 
1.81 0.0 0.0 
1.82 0.0 0.0 
1.83 0.0 0.0 
1.84 0.0 0.0 
1.85 0.0 0.0 
1.86 0.0 0.0 
1.87 0.0 0.0 
1.88 0.0 0.0 
1.89 0.0 0.0 
1.9 0.0 0.0 
1.91 0.0 0.0 
1.92 0.0 0.0 
1.93 0.0 0.0 
1.94 0.0 0.0 
1.95 0.0 0.0 
1.96 0.0 0.0 
1.97 0.0 0.0 
1.98 0.0 0.0 
1.99 0.0 0.0 
2.0 0.0 0.0 
2.01 0.0 0.0 
2.02 0.0 0.0 
2.03 0.0 0.0 
2.04 0.0 0.0 
2.05 0.0 0.0 
2.06 0.0 0.0 
2.07 0.0 0.0 
2.08 0.0 0.0 
2.09 0.0 0.0 
2.1 0.0 0.0 
2.11 0.0 0.0 
2.12 0.0 0.0 
2.13 0.0 0.0 
2.14 0.0 0.0 
2.15 0.0 0.0 
2.16 0.0 0.0 
2.17 0.0 0.0 
2.18 0.0 0.0 
2.19 0.0 0.0 
2.2 0.0 0.0 
2.21 0.0 0.0 
2.22 0.0 0.0 
2.23 0.0 0.0 
2.24 0.0 0.0 
2.25 0.0 0.0 
2.26 0.0 0.0 
2.27 0.0 0.0 
2.28 0.0 0.0 
2.29 0.0 0.0 
2.3 0.0 0.0 
2.31 0.0 0.0 
2.32 0.0 0.0 
2.33 0.0 0.0 
2.34 0.0 0.0 
2.35 0.0 0.0 
2.36 0.0 0.0 
2.37 0.0 0.0 
2.38 0.0 0.0 
2.39 0.0 0.0 
2.4 0.0 0.0 
2.41 0.0 0.0 
2.42 0.0 0.0 
2.43 0.0 0.0 
2.44 0.0 0.0 
2.45 0.0 0.0 
2.46 0.0 0.0 
2.47 0.0 0.0 
2.48 0.0 0.0 
2.49 0.0 0.0 
2.5 0.0 0.0 
2.51 0.0 0.0 
2.52 0.0 0.0 
2.53 0.0 0.0 
2.54 0.0 0.0 
2.55 0.0 0.0 
2.56 0.0 0.0 
2.57 0.0 0.0 
2.58 0.0 0.0 
2.59 0.0 0.0 
2.6 0.0 0.0 
2.61 0.0 0.0 
2.62 0.0 0.0 
2.63 0.0 0.0 
2.64 0.0 0.0 
2.65 0.0 0.0 
2.66 0.0 0.0 
2.67 0.0 0.0 
2.68 0.0 0.0 
2.69 0.0 0.0 
2.7 0.0 0.0 
2.71 0.0 0.0 
2.72 0.0 0.0 
2.73 0.0 0.0 
2.74 0.0 0.0 
2.75 0.0 0.0 
2.76 0.0 0.0 
2.77 0.0 0.0 
2.78 0.0 0.0 
2.79 0.0 0.0 
2.8 0.0 0.0 
2.81 0.0 0.0 
2.82 0.0 0.0 
2.83 0.0 0.0 
2.84 0.0 0.0 
2.85 0.0 0.0 
2.86 0.0 0.0 
2.87 0.0 0.0 
2.88 0.0 0.0 
2.89 0.0 0.0 
2.9 0.0 0.0 
2.91 0.0 0.0 
2.92 0.0 0.0 
2.93 0.0 0.0 
2.94 0.0 0.0 
2.95 0.0 0.0 
2.96 0.0 0.0 
2.97 0.0 0.0 
2.98 0.0 0.0 
2.99 0.0 0.0 
3.0 0.0 0.0 
3.01 0.0 0.0 
3.02 0.0 0.0 
3.03 0.0 0.0 
3.04 0.0 0.0 
3.05 0.0 0.0 
3.06 0.0 0.0 
3.07 0.0 0.0 
3.08 0.0 0.0 
3.09 0.0 0.0 
3.1 0.0 0.0 
3.11 0.0 0.0 
3.12 0.0 0.0 
3.13 0.0 0.0 
3.14 0.0 0.0 
3.15 0.0 0.0 
3.16 0.0 0.0 
3.17 0.0 0.0 
3.18 0.0 0.0 
3.19 0.0 0.0 
3.2 0.0 0.0 
3.21 0.0 0.0 
3.22 0.0 0.0 
3.23 0.0 0.0 
3.24 0.0 0.0 
3.25 0.0 0.0 
3.26 0.0 0.0 
3.27 0.0 0.0 
3.28 0.0 0.0 
3.29 0.0 0.0 
3.3 0.0 0.0 
3.31 0.0 0.0 
3.32 0.0 0.0 
3.33 0.0 0.0 
3.34 0.0 0.0 
3.35 0.0 0.0 
3.36 0.0 0.0 
3.37 0.0 0.0 
3.38 0.0 0.0 
3.39 0.0 0.0 
3.4 0.0 0.0 
3.41 0.0 0.0 
3.42 0.0 0.0 
3.43 0.0 0.0 
3.44 0.0 0.0 
3.45 0.0 0.0 
3.46 0.0 0.0 
3.47 0.0 0.0 
3.48 0.0 0.0 
3.49 0.0 0.0 
3.5 0.0 0.0 
3.51 0.0 0.0 
3.52 0.0 0.0 
3.53 0.0 0.0 
3.54 0.0 0.0 
3.55 0.0 0.0 
3.56 0.0 0.0 
3.57 0.0 0.0 
3.58 0.0 0.0 
3.59 0.0 0.0 
3.6 0.0 0.0 
3.61 0.0 0.0 
3.62 0.0 0.0 
3.63 0.0 0.0 
3.64 0.0 0.0 
3.65 0.0 0.0 
3.66 0.0 0.0 
3.67 0.0 0.0 
3.68 0.0 0.0 
3.69 0.0 0.0 
3.7 0.0 0.0 
3.71 0.0 0.0 
3.72 0.0 0.0 
3.73 0.0 0.0 
3.74 0.0 0.0 
3.75 0.0 0.0 
3.76 0.0 0.0 
3.77 0.0 0.0 
3.78 0.0 0.0 
3.79 0.0 0.0 
3.8 0.0 0.0 
3.81 0.0 0.0 
3.82 0.0 0.0 
3.83 0.0 0.0 
3.84 0.0 0.0 
3.85 0.0 0.0 
3.86 0.0 0.0 
3.87 0.0 0.0 
3.88 0.0 0.0 
3.89 0.0 0.0 
3.9 0.0 0.0 
3.91 0.0 0.0 
3.92 0.0 0.0 
3.93 0.0 0.0 
3.94 0.0 0.0 
3.95 0.0 0.0 
3.96 0.0 0.0 
3.97 0.0 0.0 
3.98 0.0 0.0 
3.99 0.0 0.0 
4.0 0.0 0.0 
4.01 0.0 0.0 
4.02 0.0 0.0 
4.03 0.0 0.0 
4.04 0.0 0.0 
4.05 0.0 0.0 
4.06 0.0 0.0 
4.07 0.0 0.0 
4.08 0.0 0.0 
4.09 0.0 0.0 
4.1 0.0 0.0 
4.11 0.0 0.0 
4.12 0.0 0.0 
4.13 0.0 0.0 
4.14 0.0 0.0 
4.15 0.0 0.0 
4.16 0.0 0.0 
4.17 0.0 0.0 
4.18 0.0 0.0 
4.19 0.0 0.0 
4.2 0.0 0.0 
4.21 0.0 0.0 
4.22 0.0 0.0 
4.23 0.0 0.0 
4.24 0.0 0.0 
4.25 0.0 0.0 
4.26 0.0 0.0 
4.27 0.0 0.0 
4.28 0.0 0.0 
4.29 0.0 0.0 
4.3 0.0 0.0 
4.31 0.0 0.0 
4.32 0.0 0.0 
4.33 0.0 0.0 
4.34 0.0 0.0 
4.35 0.0 0.0 
4.36 0.0 0.0 
4.37 0.0 0.0 
4.38 0.0 0.0 
4.39 0.0 0.0 
4.4 0.0 0.0 
4.41 0.0 0.0 
4.42 0.0 0.0 
4.43 0.0 0.0 
4.44 0.0 0.0 
4.45 0.0 0.0 
4.46 0.0 0.0 
4.47 0.0 0.0 
4.48 0.0 0.0 
4.49 0.0 0.0 
4.5 0.0 0.0 
4.51 0.0 0.0 
4.52 0.0 0.0 
4.53 0.0 0.0 
4.54 0.0 0.0 
4.55 0.0 0.0 
4.56 0.0 0.0 
4.57 0.0 0.0 
4.58 0.0 0.0 
4.59 0.0 0.0 
4.6 0.0 0.0 
4.61 0.0 0.0 
4.62 0.0 0.0 
4.63 0.0 0.0 
4.64 0.0 0.0 
4.65 0.0 0.0 
4.66 0.0 0.0 
4.67 0.0 0.0 
4.68 0.0 0.0 
4.69 0.0 0.0 
4.7 0.0 0.0 
4.71 0.0 0.0 
4.72 0.0 0.0 
4.73 0.0 0.0 
4.74 0.0 0.0 
4.75 0.0 0.0 
4.76 0.0 0.0 
4.77 0.0 0.0 
4.78 0.0 0.0 
4.79 0.0 0.0 
4.8 0.0 0.0 
4.81 0.0 0.0 
4.82 0.0 0.0 
4.83 0.0 0.0 
4.84 0.0 0.0 
4.85 0.0 0.0 
4.86 0.0 0.0 
4.87 0.0 0.0 
4.88 0.0 0.0 
4.89 0.0 0.0 
4.9 0.0 0.0 
4.91 0.0 0.0 
4.92 0.0 0.0 
4.93 0.0 0.0 
4.94 0.0 0.0 
4.95 0.0 0.0 
4.96 0.0 0.0 
4.97 0.0 0.0 
4.98 0.0 0.0 
4.99 0.0 0.0 
5.0 0.0 0.0 
5.01 0.0 0.0 
5.02 0.0 0.0 
5.03 0.0 0.0 
5.04 0.0 0.0 
5.05 0.0 0.0 
5.06 0.0 0.0 
5.07 0.0 0.0 
5.08 0.0 0.0 
5.09 0.0 0.0 
5.1 0.0 0.0 
5.11 0.0 0.0 
5.12 0.0 0.0 
5.13 0.0 0.0 
5.14 0.0 0.0 
5.15 0.0 0.0 
5.16 0.0 0.0 
5.17 0.0 0.0 
5.18 0.0 0.0 
5.19 0.0 0.0 
5.2 0.0 0.0 
5.21 0.0 0.0 
5.22 0.0 0.0 
5.23 0.0 0.0 
5.24 0.0 0.0 
5.25 0.0 0.0 
5.26 0.0 0.0 
5.27 0.0 0.0 
5.28 0.0 0.0 
5.29 0.0 0.0 
5.3 0.0 0.0 
5.31 0.0 0.0 
5.32 0.0 0.0 
5.33 0.0 0.0 
5.34 0.0 0.0 
5.35 0.0 0.0 
5.36 0.0 0.0 
5.37 0.0 0.0 
5.38 0.0 0.0 
5.39 0.0 0.0 
5.4 0.0 0.0 
5.41 0.0 0.0 
5.42 0.0 0.0 
5.43 0.0 0.0 
5.44 0.0 0.0 
5.45 0.0 0.0 
5.46 0.0 0.0 
5.47 0.0 0.0 
5.48 0.0 0.0 
5.49 0.0 0.0 
5.5 0.0 0.0 
5.51 0.0 0.0 
5.52 0.0 0.0 
5.53 0.0 0.0 
5.54 0.0 0.0 
5.55 0.0 0.0 
5.56 0.0 0.0 
5.57 0.0 0.0 
5.58 0.0 0.0 
5.59 0.0 0.0 
5.6 0.0 0.0 
5.61 0.0 0.0 
5.62 0.0 0.0 
5.63 0.0 0.0 
5.64 0.0 0.0 
5.65 0.0 0.0 
5.66 0.0 0.0 
5.67 0.0 0.0 
5.68 0.0 0.0 
5.69 0.0 0.0 
5.7 0.0 0.0 
5.71 0.0 0.0 
5.72 0.0 0.0 
5.73 0.0 0.0 
5.74 0.0 0.0 
5.75 0.0 0.0 
5.76 0.0 0.0 
5.77 0.0 0.0 
5.78 0.0 0.0 
5.79 0.0 0.0 
5.8 0.0 0.0 
5.81 0.0 0.0 
5.82 0.0 0.0 
5.83 0.0 0.0 
5.84 0.0 0.0 
5.85 0.0 0.0 
5.86 0.0 0.0 
5.87 0.0 0.0 
5.88 0.0 0.0 
5.89 0.0 0.0 
5.9 0.0 0.0 
5.91 0.0 0.0 
5.92 0.0 0.0 
5.93 0.0 0.0 
5.94 0.0 0.0 
5.95 0.0 0.0 
5.96 0.0 0.0 
5.97 0.0 0.0 
5.98 0.0 0.0 
5.99 0.0 0.0 
6.0 0.0 0.0 
6.01 0.0 0.0 
# local
0.0 -1.5766110554E+01
0.01 -1.5797739244E+01
0.02 -1.5869342537E+01
0.03 -1.5953938621E+01
0.04 -1.6024545686E+01
0.05 -1.6067425927E+01
0.06 -1.6080532909E+01
0.07 -1.6067960162E+01
0.08 -1.6035563044E+01
0.09 -1.5988744278E+01
0.1 -1.5931717199E+01
0.11 -1.5867482967E+01
0.12 -1.5798062773E+01
0.13 -1.5724770891E+01
0.14 -1.5648447934E+01
0.15 -1.5569634909E+01
0.16 -1.5488692787E+01
0.17 -1.5405879504E+01
0.18 -1.5321396606E+01
0.19 -1.5235415589E+01
0.2 -1.5148091425E+01
0.21 -1.5059568448E+01
0.22 -1.4969982026E+01
0.23 -1.4879458114E+01
0.24 -1.4788111913E+01
0.25 -1.4696046246E+01
0.26 -1.4603349935E+01
0.27 -1.4510096243E+01
0.28 -1.4416341370E+01
0.29 -1.4322122971E+01
0.3 -1.4227458706E+01
0.31 -1.4132344892E+01
0.32 -1.4036755411E+01
0.33 -1.3940641069E+01
0.34 -1.3843929621E+01
0.35 -1.3746526938E+01
0.36 -1.3648319179E+01
0.37 -1.3549176627E+01
0.38 -1.3448958817E+01
0.39 -1.3347521043E+01
0.4 -1.3244721908E+01
0.41 -1.3140431346E+01
0.42 -1.3034538563E+01
0.43 -1.2926959176E+01
0.44 -1.2817640926E+01
0.45 -1.2706567441E+01
0.46 -1.2593759763E+01
0.47 -1.2479275578E+01
0.48 -1.2363206314E+01
0.49 -1.2245672789E+01
0.5 -1.2126819510E+01
0.51 -1.2006808331E+01
0.52 -1.1885812341E+01
0.53 -1.1764010117E+01
0.54 -1.1641580600E+01
0.55 -1.1518699063E+01
0.56 -1.1395534012E+01
0.57 -1.1272245141E+01
0.58 -1.1148981989E+01
0.59 -1.1025883495E+01
0.6 -1.0903078055E+01
0.61 -1.0780683731E+01
0.62 -1.0658809379E+01
0.63 -1.0537554907E+01
0.64 -1.0417012583E+01
0.65 -1.0297267897E+01
0.66 -1.0178400027E+01
0.67 -1.0060482903E+01
0.68 -9.9435857502E+00
0.69 -9.8277735856E+00
0.7 -9.7131075622E+00
0.71 -9.5996454262E+00
0.72 -9.4874417090E+00
0.73 -9.3765478980E+00
0.74 -9.2670125613E+00
0.75 -9.1588813014E+00
0.76 -9.0521968696E+00
0.77 -8.9469990996E+00
0.78 -8.8433248493E+00
0.79 -8.7412079207E+00
0.8 -8.6406789627E+00
0.81 -8.5417653618E+00
0.82 -8.4444911235E+00
0.83 -8.3488767469E+00
0.84 -8.2549390954E+00
0.85 -8.1626912644E+00
0.86 -8.0721424471E+00
0.87 -7.9832977993E+00
0.88 -7.8961583037E+00
0.89 -7.8107206329E+00
0.9 -7.7269770128E+00
0.91 -7.6449150842E+00
0.92 -7.5645177645E+00
0.93 -7.4857631065E+00
0.94 -7.4086241574E+00
0.95 -7.3330688142E+00
0.96 -7.2590597141E+00
0.97 -7.1865541434E+00
0.98 -7.1155034631E+00
0.99 -7.0458571117E+00
1.0 -6.9775658450E+00
1.01 -6.9105827140E+00
1.02 -6.8448629757E+00
1.03 -6.7803638913E+00
1.04 -6.7170448807E+00
1.05 -6.6548673125E+00
1.06 -6.5937943687E+00
1.07 -6.5337910109E+00
1.08 -6.4748238009E+00
1.09 -6.4168611197E+00
1.1 -6.3598729317E+00
1.11 -6.3038306467E+00
1.12 -6.2487070360E+00
1.13 -6.1944762998E+00
1.14 -6.1411141245E+00
1.15 -6.0885973429E+00
1.16 -6.0369038764E+00
1.17 -5.9860129635E+00
1.18 -5.9359050163E+00
1.19 -5.8865613897E+00
1.2 -5.8379642851E+00
1.21 -5.7900972544E+00
1.22 -5.7429445599E+00
1.23 -5.6964911601E+00
1.24 -5.6507231259E+00
1.25 -5.6056272166E+00
1.26 -5.5611907167E+00
1.27 -5.5174018039E+00
1.28 -5.4742492415E+00
1.29 -5.4317221554E+00
1.3 -5.3898104029E+00
1.31 -5.3485042211E+00
1.32 -5.3077940841E+00
1.33 -5.2676710325E+00
1.34 -5.2281262351E+00
1.35 -5.1891510705E+00
1.36 -5.1507371775E+00
1.37 -5.1128762128E+00
1.38 -5.0755599593E+00
1.39 -5.0387801834E+00
1.4 -5.0025286790E+00
1.41 -4.9667971366E+00
1.42 -4.9315772114E+00
1.43 -4.8968604561E+00
1.44 -4.8626382652E+00
1.45 -4.8289020222E+00
1.46 -4.7956428451E+00
1.47 -4.7628518747E+00
1.48 -4.7305200528E+00
1.49 -4.6986382965E+00
1.5 -4.6671974359E+00
1.51 -4.6361882874E+00
1.52 -4.6056016311E+00
1.53 -4.5754283486E+00
1.54 -4.5456592768E+00
1.55 -4.5162855006E+00
1.56 -4.4872980933E+00
1.57 -4.4586884275E+00
1.58 -4.4304479961E+00
1.59 -4.4025685592E+00
1.6 -4.3750422100E+00
1.61 -4.3478612489E+00
1.62 -4.3210184678E+00
1.63 -4.2945067285E+00
1.64 -4.2683195022E+00
1.65 -4.2424502009E+00
1.66 -4.2168929334E+00
1.67 -4.1916416869E+00
1.68 -4.1666911010E+00
1.69 -4.1420357337E+00
1.7 -4.1176704943E+00
1.71 -4.0935902121E+00
1.72 -4.0697900026E+00
1.73 -4.0462648981E+00
1.74 -4.0230102358E+00
1.75 -4.0000213148E+00
1.76 -3.9772936595E+00
1.77 -3.9548228034E+00
1.78 -3.9326044384E+00
1.79 -3.9106343328E+00
1.8 -3.8889083272E+00
1.81 -3.8674224205E+00
1.82 -3.8461725857E+00
1.83 -3.8251550477E+00
1.84 -3.8043658979E+00
1.85 -3.7838015718E+00
1.86 -3.7634582944E+00
1.87 -3.7433326563E+00
1.88 -3.7234210815E+00
1.89 -3.7037202391E+00
1.9 -3.6842267731E+00
1.91 -3.6649374155E+00
1.92 -3.6458490284E+00
1.93 -3.6269583961E+00
1.94 -3.6082625788E+00
1.95 -3.5897584495E+00