#  This pseudopotential file has been produced using the code
#  ONCVPSP (Optimized Norm-Conservinng Vanderbilt PSeudopotential)
#  scalar-relativistic version 2.1.1, 03/26/2014 by D. R. Hamann
#  as distributed by Mat-Sim Research at www.mat-simresearch.com.
#  Reference:
#    D. R. Hamann, Phys. Rev. B 88, 085117 (2013)
#    DOI:https://doi.org/10.1103/PhysRevB.88.085117
#
#  Pseudopotential generation was done by M. Schlipf and F. Gygi using
#  the input parameters obtained from their optimization algorithm.
#  Reference:
#    M. Schlipf and F. Gygi, Computer Physics Communications (2015)
#    DOI: 10.1016/j.cpc.2015.05.011
#    http://dx.doi.org/10.1016/j.cpc.2015.05.011
#    http://www.quantum-simulation.org
#  License:
#  This work is licensed under the Creative Commons Attribution-ShareAlike
#  4.0 International License. To view a copy of this license, visit
#  http://creativecommons.org/licenses/by-sa/4.0/ or send a letter to
#  Creative Commons, PO Box 1866, Mountain View, CA 94042, USA.
#
#  Format:
#    The format of this file has been adapted to match MGmol pseudopotential
#    parser using the script convertONCVPSP_SG15.py
#
N_ONCV_PBE-1
#
color
#radii of balls and covalent bonds
-1.  -1.
# Nlcc flag
0
# Atomic number
7
# Atomic mass
14.00699997
# Number of valence electrons
5
#Gaussian core charge parameter rc
1.0
# Number of potentials
3
# l-value for state which is local, then type of potential format
2 3
# Local potential radius
3.2
# Non-local potential radius
3.2
# number of points in radial grid
602
# VANDERBILT-KLEINMAN-BYLANDER PROJECTORs
# l, nproj
0 2     0.7070940539E+01     0.9781080649E+00 
1 2    -0.4781783452E+01    -0.1328201236E+01 
# l= 0
0.0 -8.3833937254 3.4232195615 
0.01 -8.3799978758 3.4202071705 
0.02 -8.3697860653 3.4111530231 
0.03 -8.3527825341 3.3960738696 
0.04 -8.3290115228 3.3749864603 
0.05 -8.2985069887 3.3479144681 
0.06 -8.261312626 3.3148887067 
0.07 -8.2174818893 3.2759474053 
0.08 -8.1670780196 3.231136536 
0.09 -8.1101740718 3.1805101875 
0.1 -8.0468529415 3.1241309807 
0.11 -7.9772073885 3.0620705184 
0.12 -7.9013400567 2.9944098623 
0.13 -7.8193634857 2.9212400287 
0.14 -7.7314001139 2.8426624957 
0.15 -7.6375822685 2.7587897114 
0.16 -7.5380521411 2.6697455952 
0.17 -7.4329617463 2.5756660223 
0.18 -7.3224728588 2.4766992817 
0.19 -7.2067569298 2.3730065 
0.2 -7.0859949741 2.264762015 
0.21 -6.9603774349 2.1521537041 
0.22 -6.8301040119 2.0353832393 
0.23 -6.6953834613 1.9146662776 
0.24 -6.5564333561 1.7902325648 
0.25 -6.4134798193 1.6623259662 
0.26 -6.2667572033 1.5312043795 
0.27 -6.1165077488 1.3971395792 
0.28 -5.962981185 1.2604169264 
0.29 -5.8064342997 1.1213349889 
0.3 -5.647130465 0.98020504493 
0.31 -5.4853391206 0.83735047259 
0.32 -5.321335212 0.69310601673 
0.33 -5.1553985987 0.54781696226 
0.34 -4.9878134137 0.4018381796 
0.35 -4.8188673807 0.2555330423 
0.36 -4.6488511141 0.10927228913 
0.37 -4.4780573629 -0.036567271748 
0.38 -4.3067802363 -0.18160413005 
0.39 -4.1353144013 -0.32545351173 
0.4 -3.9639542476 -0.46772893557 
0.41 -3.7929930387 -0.60804381665 
0.42 -3.6227220421 -0.74601313801 
0.43 -3.4534296479 -0.88125517478 
0.44 -3.2854004768 -1.0133932584 
0.45 -3.1189144859 -1.1420575692 
0.46 -2.9542460734 -1.2668869442 
0.47 -2.7916631913 -1.387530686 
0.48 -2.6314265018 -1.5036503015 
0.49 -2.47378844 -1.6149214048 
0.5 -2.3189924173 -1.7210353819 
0.51 -2.1672720468 -1.8217009988 
0.52 -2.0188503481 -1.9166460389 
0.53 -1.8739388537 -2.0056191124 
0.54 -1.732737225 -2.0883905138 
0.55 -1.5954322069 -2.1647542719 
0.56 -1.4621973571 -2.2345287551 
0.57 -1.333192259 -2.2975581981 
0.58 -1.2085621978 -2.353713346 
0.59 -1.0884375079 -2.4028926755 
0.6 -0.97293360827 -2.4450223075 
0.61 -0.86215002573 -2.4800577568 
0.62 -0.75617104038 -2.5079826487 
0.63 -0.65506469693 -2.5288104095 
0.64 -0.55888310603 -2.5425835395 
0.65 -0.46766273408 -2.5493728888 
0.66 -0.38142374876 -2.5492785866 
0.67 -0.30017057762 -2.5424287393 
0.68 -0.22389217436 -2.5289786283 
0.69 -0.15256244154 -2.5091096125 
0.7 -0.086139788103 -2.4830294406 
0.71 -0.024568342949 -2.4509697004 
0.72 0.032221809773 -2.413184916 
0.73 0.084314093363 -2.3699510915 
0.74 0.1318047363 -2.321563976 
0.75 0.17480239707 -2.2683377698 
0.76 0.2134272741 -2.2106030175 
0.77 0.24781028338 -2.1487046133 
0.78 0.27809232097 -2.0829999018 
0.79 0.30442342743 -2.0138566245 
0.8 0.32696191973 -1.9416508145 
0.81 0.34587349606 -1.8667646538 
0.82 0.36133031921 -1.7895843109 
0.83 0.37351008427 -1.7104977709 
0.84 0.38259507609 -1.6298926758 
0.85 0.38877122239 -1.5481541871 
0.86 0.39222714765 -1.4656628877 
0.87 0.39315323345 -1.3827927341 
0.88 0.39174069021 -1.2999090738 
0.89 0.3881806455 -1.21736674 
0.9 0.38266325363 -1.1355082343 
0.91 0.3753768312 -1.05466201 
0.92 0.36650702291 -0.97514086392 
0.93 0.35623600185 -0.8972404476 
0.94 0.34474170806 -0.82123790516 
0.95 0.33219712893 -0.74739064427 
0.96 0.31876980308 -0.67593583254 
0.97 0.30462077846 -0.60708800794 
0.98 0.28990423397 -0.54103907779 
0.99 0.27476701087 -0.47795782396 
1.0 0.25934807756 -0.41798919045 
1.01 0.24377810285 -0.3612539062 
1.02 0.22817911217 -0.30784832508 
1.03 0.21266470226 -0.2578456722 
1.04 0.19733797262 -0.21129138178 
1.05 0.18229298665 -0.1682077754 
1.06 0.16761409975 -0.12859294839 
1.07 0.15337584366 -0.092421151151 
1.08 0.1396438166 -0.059645387463 
1.09 0.12647159361 -0.030191037026 
1.1 0.11390353081 -0.0039630063463 
1.11 0.10197406871 0.019155281934 
1.12 0.090708799358 0.039298886262 
1.13 0.080123593815 0.056619471672 
1.14 0.070227673946 0.071275245192 
1.15 0.061024372085 0.083429790064 
1.16 0.052511962988 0.093250798533 
1.17 0.044682028129 0.10090978584 
1.18 0.037521888086 0.10657912289 
1.19 0.031015059574 0.11043138827 
1.2 0.025141213318 0.11263866157 
1.21 0.019876005667 0.11336980971 
1.22 0.015192955473 0.11279033889 
1.23 0.011063595893 0.11106306695 
1.24 0.007456655257 0.10834247812 
1.25 0.0043400745021 0.10477759314 
1.26 0.0016808247737 0.10051281117 
1.27 -0.00055510433714 0.095680812463 
1.28 -0.0024016580764 0.090406927903 
1.29 -0.0038929622779 0.084811273797 
1.3 -0.0050625477429 0.078998968474 
1.31 -0.0059432416054 0.073068149935 
1.32 -0.0065674921377 0.067110734764 
1.33 -0.0069657771649 0.061201995595 
1.34 -0.007167828516 0.055412646763 
1.35 -0.0072020326121 0.049803640184 
1.36 -0.0070943360586 0.044422493293 
1.37 -0.0068701508663 0.039313829408 
1.38 -0.0065520891543 0.034508390981 
1.39 -0.0061611134842 0.030030366818 
1.4 -0.005717227564 0.025899372872 
1.41 -0.005236852799 0.022121815245 
1.42 -0.0047362333134 0.018703666441 
1.43 -0.0042285949508 0.01564086524 
1.44 -0.0037256393417 0.012925597893 
1.45 -0.003238024767 0.010546723262 
1.46 -0.0027732187555 0.0084862043738 
1.47 -0.0023389767364 0.0067264437607 
1.48 -0.0019396582406 0.005243996278 
1.49 -0.0015795366936 0.0040158727896 
1.5 -0.0012608949043 0.0030165453042 
1.51 -0.00098475359848 0.0022205393899 
1.52 -0.00075153947202 0.0016016330403 
1.53 -0.00055956428127 0.0011349570223 
1.54 -0.000407575033 0.00079484813589 
1.55 -0.00029180979095 0.00055922039698 
1.56 -0.00020917873683 0.00040490419124 
1.57 -0.00015459824577 0.00031332706041 
1.58 -0.00012325344328 0.00026554043958 
1.59 -0.00011211107894 0.00025459512511 
1.6 -0.00011091815786 0.00025685343044 
1.61 -8.0065645976e-05 0.00018636643746 
1.62 -2.207959279e-05 5.1598480417e-05 
1.63 6.3416160474e-06 -1.4718026015e-05 
1.64 3.4369124819e-06 -7.9766051653e-06 
1.65 0.0 0.0 
1.66 0.0 0.0 
1.67 0.0 0.0 
1.68 0.0 0.0 
1.69 0.0 0.0 
1.7 0.0 0.0 
1.71 0.0 0.0 
1.72 0.0 0.0 
1.73 0.0 0.0 
1.74 0.0 0.0 
1.75 0.0 0.0 
1.76 0.0 0.0 
1.77 0.0 0.0 
1.78 0.0 0.0 
1.79 0.0 0.0 
1.8 0.0 0.0 
1.81 0.0 0.0 
1.82 0.0 0.0 
1.83 0.0 0.0 
1.84 0.0 0.0 
1.85 0.0 0.0 
1.86 0.0 0.0 
1.87 0.0 0.0 
1.88 0.0 0.0 
1.89 0.0 0.0 
1.9 0.0 0.0 
1.91 0.0 0.0 
1.92 0.0 0.0 
1.93 0.0 0.0 
1.94 0.0 0.0 
1.95 0.0 0.0 
1.96 0.0 0.0 
1.97 0.0 0.0 
1.98 0.0 0.0 
1.99 0.0 0.0 
2.0 0.0 0.0 
2.01 0.0 0.0 
2.02 0.0 0.0 
2.03 0.0 0.0 
2.04 0.0 0.0 
2.05 0.0 0.0 
2.06 0.0 0.0 
2.07 0.0 0.0 
2.08 0.0 0.0 
2.09 0.0 0.0 
2.1 0.0 0.0 
2.11 0.0 0.0 
2.12 0.0 0.0 
2.13 0.0 0.0 
2.14 0.0 0.0 
2.15 0.0 0.0 
2.16 0.0 0.0 
2.17 0.0 0.0 
2.18 0.0 0.0 
2.19 0.0 0.0 
2.2 0.0 0.0 
2.21 0.0 0.0 
2.22 0.0 0.0 
2.23 0.0 0.0 
2.24 0.0 0.0 
2.25 0.0 0.0 
2.26 0.0 0.0 
2.27 0.0 0.0 
2.28 0.0 0.0 
2.29 0.0 0.0 
2.3 0.0 0.0 
2.31 0.0 0.0 
2.32 0.0 0.0 
2.33 0.0 0.0 
2.34 0.0 0.0 
2.35 0.0 0.0 
2.36 0.0 0.0 
2.37 0.0 0.0 
2.38 0.0 0.0 
2.39 0.0 0.0 
2.4 0.0 0.0 
2.41 0.0 0.0 
2.42 0.0 0.0 
2.43 0.0 0.0 
2.44 0.0 0.0 
2.45 0.0 0.0 
2.46 0.0 0.0 
2.47 0.0 0.0 
2.48 0.0 0.0 
2.49 0.0 0.0 
2.5 0.0 0.0 
2.51 0.0 0.0 
2.52 0.0 0.0 
2.53 0.0 0.0 
2.54 0.0 0.0 
2.55 0.0 0.0 
2.56 0.0 0.0 
2.57 0.0 0.0 
2.58 0.0 0.0 
2.59 0.0 0.0 
2.6 0.0 0.0 
2.61 0.0 0.0 
2.62 0.0 0.0 
2.63 0.0 0.0 
2.64 0.0 0.0 
2.65 0.0 0.0 
2.66 0.0 0.0 
2.67 0.0 0.0 
2.68 0.0 0.0 
2.69 0.0 0.0 
2.7 0.0 0.0 
2.71 0.0 0.0 
2.72 0.0 0.0 
2.73 0.0 0.0 
2.74 0.0 0.0 
2.75 0.0 0.0 
2.76 0.0 0.0 
2.77 0.0 0.0 
2.78 0.0 0.0 
2.79 0.0 0.0 
2.8 0.0 0.0 
2.81 0.0 0.0 
2.82 0.0 0.0 
2.83 0.0 0.0 
2.84 0.0 0.0 
2.85 0.0 0.0 
2.86 0.0 0.0 
2.87 0.0 0.0 
2.88 0.0 0.0 
2.89 0.0 0.0 
2.9 0.0 0.0 
2.91 0.0 0.0 
2.92 0.0 0.0 
2.93 0.0 0.0 
2.94 0.0 0.0 
2.95 0.0 0.0 
2.96 0.0 0.0 
2.97 0.0 0.0 
2.98 0.0 0.0 
2.99 0.0 0.0 
3.0 0.0 0.0 
3.01 0.0 0.0 
3.02 0.0 0.0 
3.03 0.0 0.0 
3.04 0.0 0.0 
3.05 0.0 0.0 
3.06 0.0 0.0 
3.07 0.0 0.0 
3.08 0.0 0.0 
3.09 0.0 0.0 
3.1 0.0 0.0 
3.11 0.0 0.0 
3.12 0.0 0.0 
3.13 0.0 0.0 
3.14 0.0 0.0 
3.15 0.0 0.0 
3.16 0.0 0.0 
3.17 0.0 0.0 
3.18 0.0 0.0 
3.19 0.0 0.0 
3.2 0.0 0.0 
3.21 0.0 0.0 
3.22 0.0 0.0 
3.23 0.0 0.0 
3.24 0.0 0.0 
3.25 0.0 0.0 
3.26 0.0 0.0 
3.27 0.0 0.0 
3.28 0.0 0.0 
3.29 0.0 0.0 
3.3 0.0 0.0 
3.31 0.0 0.0 
3.32 0.0 0.0 
3.33 0.0 0.0 
3.34 0.0 0.0 
3.35 0.0 0.0 
3.36 0.0 0.0 
3.37 0.0 0.0 
3.38 0.0 0.0 
3.39 0.0 0.0 
3.4 0.0 0.0 
3.41 0.0 0.0 
3.42 0.0 0.0 
3.43 0.0 0.0 
3.44 0.0 0.0 
3.45 0.0 0.0 
3.46 0.0 0.0 
3.47 0.0 0.0 
3.48 0.0 0.0 
3.49 0.0 0.0 
3.5 0.0 0.0 
3.51 0.0 0.0 
3.52 0.0 0.0 
3.53 0.0 0.0 
3.54 0.0 0.0 
3.55 0.0 0.0 
3.56 0.0 0.0 
3.57 0.0 0.0 
3.58 0.0 0.0 
3.59 0.0 0.0 
3.6 0.0 0.0 
3.61 0.0 0.0 
3.62 0.0 0.0 
3.63 0.0 0.0 
3.64 0.0 0.0 
3.65 0.0 0.0 
3.66 0.0 0.0 
3.67 0.0 0.0 
3.68 0.0 0.0 
3.69 0.0 0.0 
3.7 0.0 0.0 
3.71 0.0 0.0 
3.72 0.0 0.0 
3.73 0.0 0.0 
3.74 0.0 0.0 
3.75 0.0 0.0 
3.76 0.0 0.0 
3.77 0.0 0.0 
3.78 0.0 0.0 
3.79 0.0 0.0 
3.8 0.0 0.0 
3.81 0.0 0.0 
3.82 0.0 0.0 
3.83 0.0 0.0 
3.84 0.0 0.0 
3.85 0.0 0.0 
3.86 0.0 0.0 
3.87 0.0 0.0 
3.88 0.0 0.0 
3.89 0.0 0.0 
3.9 0.0 0.0 
3.91 0.0 0.0 
3.92 0.0 0.0 
3.93 0.0 0.0 
3.94 0.0 0.0 
3.95 0.0 0.0 
3.96 0.0 0.0 
3.97 0.0 0.0 
3.98 0.0 0.0 
3.99 0.0 0.0 
4.0 0.0 0.0 
4.01 0.0 0.0 
4.02 0.0 0.0 
4.03 0.0 0.0 
4.04 0.0 0.0 
4.05 0.0 0.0 
4.06 0.0 0.0 
4.07 0.0 0.0 
4.08 0.0 0.0 
4.09 0.0 0.0 
4.1 0.0 0.0 
4.11 0.0 0.0 
4.12 0.0 0.0 
4.13 0.0 0.0 
4.14 0.0 0.0 
4.15 0.0 0.0 
4.16 0.0 0.0 
4.17 0.0 0.0 
4.18 0.0 0.0 
4.19 0.0 0.0 
4.2 0.0 0.0 
4.21 0.0 0.0 
4.22 0.0 0.0 
4.23 0.0 0.0 
4.24 0.0 0.0 
4.25 0.0 0.0 
4.26 0.0 0.0 
4.27 0.0 0.0 
4.28 0.0 0.0 
4.29 0.0 0.0 
4.3 0.0 0.0 
4.31 0.0 0.0 
4.32 0.0 0.0 
4.33 0.0 0.0 
4.34 0.0 0.0 
4.35 0.0 0.0 
4.36 0.0 0.0 
4.37 0.0 0.0 
4.38 0.0 0.0 
4.39 0.0 0.0 
4.4 0.0 0.0 
4.41 0.0 0.0 
4.42 0.0 0.0 
4.43 0.0 0.0 
4.44 0.0 0.0 
4.45 0.0 0.0 
4.46 0.0 0.0 
4.47 0.0 0.0 
4.48 0.0 0.0 
4.49 0.0 0.0 
4.5 0.0 0.0 
4.51 0.0 0.0 
4.52 0.0 0.0 
4.53 0.0 0.0 
4.54 0.0 0.0 
4.55 0.0 0.0 
4.56 0.0 0.0 
4.57 0.0 0.0 
4.58 0.0 0.0 
4.59 0.0 0.0 
4.6 0.0 0.0 
4.61 0.0 0.0 
4.62 0.0 0.0 
4.63 0.0 0.0 
4.64 0.0 0.0 
4.65 0.0 0.0 
4.66 0.0 0.0 
4.67 0.0 0.0 
4.68 0.0 0.0 
4.69 0.0 0.0 
4.7 0.0 0.0 
4.71 0.0 0.0 
4.72 0.0 0.0 
4.73 0.0 0.0 
4.74 0.0 0.0 
4.75 0.0 0.0 
4.76 0.0 0.0 
4.77 0.0 0.0 
4.78 0.0 0.0 
4.79 0.0 0.0 
4.8 0.0 0.0 
4.81 0.0 0.0 
4.82 0.0 0.0 
4.83 0.0 0.0 
4.84 0.0 0.0 
4.85 0.0 0.0 
4.86 0.0 0.0 
4.87 0.0 0.0 
4.88 0.0 0.0 
4.89 0.0 0.0 
4.9 0.0 0.0 
4.91 0.0 0.0 
4.92 0.0 0.0 
4.93 0.0 0.0 
4.94 0.0 0.0 
4.95 0.0 0.0 
4.96 0.0 0.0 
4.97 0.0 0.0 
4.98 0.0 0.0 
4.99 0.0 0.0 
5.0 0.0 0.0 
5.01 0.0 0.0 
5.02 0.0 0.0 
5.03 0.0 0.0 
5.04 0.0 0.0 
5.05 0.0 0.0 
5.06 0.0 0.0 
5.07 0.0 0.0 
5.08 0.0 0.0 
5.09 0.0 0.0 
5.1 0.0 0.0 
5.11 0.0 0.0 
5.12 0.0 0.0 
5.13 0.0 0.0 
5.14 0.0 0.0 
5.15 0.0 0.0 
5.16 0.0 0.0 
5.17 0.0 0.0 
5.18 0.0 0.0 
5.19 0.0 0.0 
5.2 0.0 0.0 
5.21 0.0 0.0 
5.22 0.0 0.0 
5.23 0.0 0.0 
5.24 0.0 0.0 
5.25 0.0 0.0 
5.26 0.0 0.0 
5.27 0.0 0.0 
5.28 0.0 0.0 
5.29 0.0 0.0 
5.3 0.0 0.0 
5.31 0.0 0.0 
5.32 0.0 0.0 
5.33 0.0 0.0 
5.34 0.0 0.0 
5.35 0.0 0.0 
5.36 0.0 0.0 
5.37 0.0 0.0 
5.38 0.0 0.0 
5.39 0.0 0.0 
5.4 0.0 0.0 
5.41 0.0 0.0 
5.42 0.0 0.0 
5.43 0.0 0.0 
5.44 0.0 0.0 
5.45 0.0 0.0 
5.46 0.0 0.0 
5.47 0.0 0.0 
5.48 0.0 0.0 
5.49 0.0 0.0 
5.5 0.0 0.0 
5.51 0.0 0.0 
5.52 0.0 0.0 
5.53 0.0 0.0 
5.54 0.0 0.0 
5.55 0.0 0.0 
5.56 0.0 0.0 
5.57 0.0 0.0 
5.58 0.0 0.0 
5.59 0.0 0.0 
5.6 0.0 0.0 
5.61 0.0 0.0 
5.62 0.0 0.0 
5.63 0.0 0.0 
5.64 0.0 0.0 
5.65 0.0 0.0 
5.66 0.0 0.0 
5.67 0.0 0.0 
5.68 0.0 0.0 
5.69 0.0 0.0 
5.7 0.0 0.0 
5.71 0.0 0.0 
5.72 0.0 0.0 
5.73 0.0 0.0 
5.74 0.0 0.0 
5.75 0.0 0.0 
5.76 0.0 0.0 
5.77 0.0 0.0 
5.78 0.0 0.0 
5.79 0.0 0.0 
5.8 0.0 0.0 
5.81 0.0 0.0 
5.82 0.0 0.0 
5.83 0.0 0.0 
5.84 0.0 0.0 
5.85 0.0 0.0 
5.86 0.0 0.0 
5.87 0.0 0.0 
5.88 0.0 0.0 
5.89 0.0 0.0 
5.9 0.0 0.0 
5.91 0.0 0.0 
5.92 0.0 0.0 
5.93 0.0 0.0 
5.94 0.0 0.0 
5.95 0.0 0.0 
5.96 0.0 0.0 
5.97 0.0 0.0 
5.98 0.0 0.0 
5.99 0.0 0.0 
6.0 0.0 0.0 
6.01 0.0 0.0 
# l= 1
0.0 0.0 0.0 
0.01 0.31691115296 0.12833055002 
0.02 0.6327506292 0.25591217486 
0.03 0.94645136007 0.38199950664 
0.04 1.2569554737 0.50585428246 
0.05 1.5632188455 0.62674887265 
0.06 1.8642155902 0.74396977966 
0.07 2.1589424785 0.85682109725 
0.08 2.4464232565 0.96462791932 
0.09 2.7257128515 1.0667396871 
0.1 2.9959014448 1.1625334629 
0.11 3.2561183922 1.2514171183 
0.12 3.5055359765 1.3328324232 
0.13 3.7433729717 1.4062580228 
0.14 3.9688980035 1.4712122871 
0.15 4.1814326898 1.5272560198 
0.16 4.3803545423 1.5739950083 
0.17 4.5650996186 1.6110824023 
0.18 4.7351649045 1.6382209014 
0.19 4.8901104195 1.6551647388 
0.2 5.0295610238 1.6617214382 
0.21 5.1532079278 1.6577533385 
0.22 5.2608098792 1.643178856 
0.23 5.3521940304 1.6179734804 
0.24 5.4272564708 1.5821704817 
0.25 5.4859624266 1.5358613221 
0.26 5.5283461091 1.4791957464 
0.27 5.5545102276 1.4123815589 
0.28 5.5646251474 1.3356840555 
0.29 5.5589277078 1.2494251212 
0.3 5.5377196963 1.1539819761 
0.31 5.5013659832 1.0497855704 
0.32 5.4502923332 0.93731863025 
0.33 5.3849828862 0.81711334783 
0.34 5.3059773248 0.68974871947 
0.35 5.213867786 0.55584758189 
0.36 5.1092954099 0.41607324677 
0.37 4.9929467086 0.27112589469 
0.38 4.8655496976 0.12173868067 
0.39 4.7278696661 -0.031326572994 
0.4 4.5807049337 -0.18728376199 
0.41 4.4248823343 -0.34532720879 
0.42 4.261252569 -0.50463655721 
0.43 4.0906854444 -0.66438183174 
0.44 3.9140650229 -0.82372863041 
0.45 3.732284716 -0.98184341479 
0.46 3.5462423515 -1.137898858 
0.47 3.3568352506 -1.2910792079 
0.48 3.1649554901 -1.4405854704 
0.49 2.9714847265 -1.5856410667 
0.5 2.777289713 -1.7254967608 
0.51 2.5832178663 -1.8594355206 
0.52 2.3900927615 -1.9867774392 
0.53 2.1987094003 -2.1068848753 
0.54 2.009831375 -2.2191655283 
0.55 1.8241857462 -2.323077914 
0.56 1.6424607668 -2.4181337401 
0.57 1.4653019142 -2.5039020266 
0.58 1.293309626 -2.5800113322 
0.59 1.1270361291 -2.6461528615 
0.6 0.96698445288 -2.702081178 
0.61 0.81360483138 -2.7476175365 
0.62 0.66729559136 -2.782648464 
0.63 0.52840007985 -2.8071282798 
0.64 0.39720703887 -2.8210779659 
0.65 0.27395097135 -2.8245839931 
0.66 0.15881083858 -2.8177985492 
0.67 0.051911531399 -2.8009369687 
0.68 -0.04667512666 -2.774275508 
0.69 -0.13692897946 -2.7381486826 
0.7 -0.21888098639 -2.6929468757 
0.71 -0.29261008059 -2.6391119188 
0.72 -0.35824128404 -2.5771334414 
0.73 -0.4159431628 -2.5075445643 
0.74 -0.46592500191 -2.4309173651 
0.75 -0.50843386132 -2.3478577659 
0.76 -0.54375116939 -2.2590003427 
0.77 -0.57218933031 -2.165003103 
0.78 -0.59408818976 -2.0665419618 
0.79 -0.60981137125 -1.9643051699 
0.8 -0.61974254036 -1.8589877089 
0.81 -0.62428163146 -1.7512857073 
0.82 -0.62384107136 -1.6418909303 
0.83 -0.61884203343 -1.5314853966 
0.84 -0.60971075517 -1.4207361709 
0.85 -0.59687495066 -1.3102903826 
0.86 -0.58076034815 -1.2007705148 
0.87 -0.56178738113 -1.0927700081 
0.88 -0.54036805961 -0.98684921825 
0.89 -0.51690304588 -0.88353176365 
0.9 -0.49177895717 -0.78330129473 
0.91 -0.46536591463 -0.68659871302 
0.92 -0.43801535576 -0.59381986204 
0.93 -0.41005812411 -0.50531370759 
0.94 -0.38180284687 -0.42138101873 
0.95 -0.3535346078 -0.3422735548 
0.96 -0.32551478108 -0.26819491238 
0.97 -0.29797801258 -0.1992975509 
0.98 -0.27113326694 -0.13568562865 
0.99 -0.24516387242 -0.077416374488 
1.0 -0.22022736766 -0.024501296954 
1.01 -0.19645591928 0.023091770031 
1.02 -0.17395706242 0.065436168456 
1.03 -0.15281569619 0.10264273095 
1.04 -0.13309095544 0.13486073225 
1.05 -0.11482209959 0.16226970049 
1.06 -0.098028572297 0.18507736826 
1.07 -0.082711657304 0.20351587633 
1.08 -0.068857068133 0.21783821631 
1.09 -0.056433565659 0.22831418337 
1.1 -0.04539878345 0.23522480425 
1.11 -0.035699969459 0.23885904541 
1.12 -0.027275757447 0.23951189031 
1.13 -0.020055775351 0.23748125528 
1.14 -0.013962010699 0.23306834239 
1.15 -0.0089106101841 0.2265749932 
1.16 -0.0048126887966 0.21830334176 
1.17 -0.0015766618338 0.20854486815 
1.18 0.00088988846604 0.19758215521 
1.19 0.0026797111161 0.18568844316 
1.2 0.0038846691896 0.17312405795 
1.21 0.0045919134973 0.16012585041 
1.22 0.0048855679028 0.14691636088 
1.23 0.004847386319 0.13370571947 
1.24 0.0045491243956 0.12066933844 
1.25 0.0040581363722 0.10796761423 
1.26 0.0034376915115 0.095746225461 
1.27 0.0027393344079 0.084115610895 
1.28 0.0020090206457 0.073169616761 
1.29 0.001288444668 0.062988588425 
1.3 0.00060672379237 0.053618373655 
1.31 -1.1366147491e-05 0.045092609726 
1.32 -0.00054582135205 0.037431155887 
1.33 -0.00098759768257 0.030625723663 
1.34 -0.0013297945509 0.024661714734 
1.35 -0.001571493513 0.019508874959 
1.36 -0.0017177187464 0.015122411378 
1.37 -0.0017749428805 0.011452922158 
1.38 -0.0017547314206 0.0084389831708 
1.39 -0.0016697251667 0.0060163835385 
1.4 -0.0015344078581 0.0041157761059 
1.41 -0.0013638321981 0.0026676915805 
1.42 -0.0011732258973 0.0016011633474 
1.43 -0.00097689571102 0.00084843776735 
1.44 -0.00078726131467 0.00034630915422 
1.45 -0.00061636763112 3.2136810107e-05 
1.46 -0.00047079465995 -0.00014219650548 
1.47 -0.00035797587788 -0.00022811628966 
1.48 -0.00027793709055 -0.00025754617817 
1.49 -0.00023007362243 -0.00026174974903 
1.5 -0.00021697247884 -0.00026976292795 
1.51 -0.00020908394519 -0.00026344496824 
1.52 -0.00011615291035 -0.0001468686914 
1.53 -2.9555906996e-06 -3.7564455382e-06 
1.54 1.2960730815e-05 1.6280198529e-05 
1.55 0.0 0.0 
1.56 0.0 0.0 
1.57 0.0 0.0 
1.58 0.0 0.0 
1.59 0.0 0.0 
1.6 0.0 0.0 
1.61 0.0 0.0 
1.62 0.0 0.0 
1.63 0.0 0.0 
1.64 0.0 0.0 
1.65 0.0 0.0 
1.66 0.0 0.0 
1.67 0.0 0.0 
1.68 0.0 0.0 
1.69 0.0 0.0 
1.7 0.0 0.0 
1.71 0.0 0.0 
1.72 0.0 0.0 
1.73 0.0 0.0 
1.74 0.0 0.0 
1.75 0.0 0.0 
1.76 0.0 0.0 
1.77 0.0 0.0 
1.78 0.0 0.0 
1.79 0.0 0.0 
1.8 0.0 0.0 
1.81 0.0 0.0 
1.82 0.0 0.0 
1.83 0.0 0.0 
1.84 0.0 0.0 
1.85 0.0 0.0 
1.86 0.0 0.0 
1.87 0.0 0.0 
1.88 0.0 0.0 
1.89 0.0 0.0 
1.9 0.0 0.0 
1.91 0.0 0.0 
1.92 0.0 0.0 
1.93 0.0 0.0 
1.94 0.0 0.0 
1.95 0.0 0.0 
1.96 0.0 0.0 
1.97 0.0 0.0 
1.98 0.0 0.0 
1.99 0.0 0.0 
2.0 0.0 0.0 
2.01 0.0 0.0 
2.02 0.0 0.0 
2.03 0.0 0.0 
2.04 0.0 0.0 
2.05 0.0 0.0 
2.06 0.0 0.0 
2.07 0.0 0.0 
2.08 0.0 0.0 
2.09 0.0 0.0 
2.1 0.0 0.0 
2.11 0.0 0.0 
2.12 0.0 0.0 
2.13 0.0 0.0 
2.14 0.0 0.0 
2.15 0.0 0.0 
2.16 0.0 0.0 
2.17 0.0 0.0 
2.18 0.0 0.0 
2.19 0.0 0.0 
2.2 0.0 0.0 
2.21 0.0 0.0 
2.22 0.0 0.0 
2.23 0.0 0.0 
2.24 0.0 0.0 
2.25 0.0 0.0 
2.26 0.0 0.0 
2.27 0.0 0.0 
2.28 0.0 0.0 
2.29 0.0 0.0 
2.3 0.0 0.0 
2.31 0.0 0.0 
2.32 0.0 0.0 
2.33 0.0 0.0 
2.34 0.0 0.0 
2.35 0.0 0.0 
2.36 0.0 0.0 
2.37 0.0 0.0 
2.38 0.0 0.0 
2.39 0.0 0.0 
2.4 0.0 0.0 
2.41 0.0 0.0 
2.42 0.0 0.0 
2.43 0.0 0.0 
2.44 0.0 0.0 
2.45 0.0 0.0 
2.46 0.0 0.0 
2.47 0.0 0.0 
2.48 0.0 0.0 
2.49 0.0 0.0 
2.5 0.0 0.0 
2.51 0.0 0.0 
2.52 0.0 0.0 
2.53 0.0 0.0 
2.54 0.0 0.0 
2.55 0.0 0.0 
2.56 0.0 0.0 
2.57 0.0 0.0 
2.58 0.0 0.0 
2.59 0.0 0.0 
2.6 0.0 0.0 
2.61 0.0 0.0 
2.62 0.0 0.0 
2.63 0.0 0.0 
2.64 0.0 0.0 
2.65 0.0 0.0 
2.66 0.0 0.0 
2.67 0.0 0.0 
2.68 0.0 0.0 
2.69 0.0 0.0 
2.7 0.0 0.0 
2.71 0.0 0.0 
2.72 0.0 0.0 
2.73 0.0 0.0 
2.74 0.0 0.0 
2.75 0.0 0.0 
2.76 0.0 0.0 
2.77 0.0 0.0 
2.78 0.0 0.0 
2.79 0.0 0.0 
2.8 0.0 0.0 
2.81 0.0 0.0 
2.82 0.0 0.0 
2.83 0.0 0.0 
2.84 0.0 0.0 
2.85 0.0 0.0 
2.86 0.0 0.0 
2.87 0.0 0.0 
2.88 0.0 0.0 
2.89 0.0 0.0 
2.9 0.0 0.0 
2.91 0.0 0.0 
2.92 0.0 0.0 
2.93 0.0 0.0 
2.94 0.0 0.0 
2.95 0.0 0.0 
2.96 0.0 0.0 
2.97 0.0 0.0 
2.98 0.0 0.0 
2.99 0.0 0.0 
3.0 0.0 0.0 
3.01 0.0 0.0 
3.02 0.0 0.0 
3.03 0.0 0.0 
3.04 0.0 0.0 
3.05 0.0 0.0 
3.06 0.0 0.0 
3.07 0.0 0.0 
3.08 0.0 0.0 
3.09 0.0 0.0 
3.1 0.0 0.0 
3.11 0.0 0.0 
3.12 0.0 0.0 
3.13 0.0 0.0 
3.14 0.0 0.0 
3.15 0.0 0.0 
3.16 0.0 0.0 
3.17 0.0 0.0 
3.18 0.0 0.0 
3.19 0.0 0.0 
3.2 0.0 0.0 
3.21 0.0 0.0 
3.22 0.0 0.0 
3.23 0.0 0.0 
3.24 0.0 0.0 
3.25 0.0 0.0 
3.26 0.0 0.0 
3.27 0.0 0.0 
3.28 0.0 0.0 
3.29 0.0 0.0 
3.3 0.0 0.0 
3.31 0.0 0.0 
3.32 0.0 0.0 
3.33 0.0 0.0 
3.34 0.0 0.0 
3.35 0.0 0.0 
3.36 0.0 0.0 
3.37 0.0 0.0 
3.38 0.0 0.0 
3.39 0.0 0.0 
3.4 0.0 0.0 
3.41 0.0 0.0 
3.42 0.0 0.0 
3.43 0.0 0.0 
3.44 0.0 0.0 
3.45 0.0 0.0 
3.46 0.0 0.0 
3.47 0.0 0.0 
3.48 0.0 0.0 
3.49 0.0 0.0 
3.5 0.0 0.0 
3.51 0.0 0.0 
3.52 0.0 0.0 
3.53 0.0 0.0 
3.54 0.0 0.0 
3.55 0.0 0.0 
3.56 0.0 0.0 
3.57 0.0 0.0 
3.58 0.0 0.0 
3.59 0.0 0.0 
3.6 0.0 0.0 
3.61 0.0 0.0 
3.62 0.0 0.0 
3.63 0.0 0.0 
3.64 0.0 0.0 
3.65 0.0 0.0 
3.66 0.0 0.0 
3.67 0.0 0.0 
3.68 0.0 0.0 
3.69 0.0 0.0 
3.7 0.0 0.0 
3.71 0.0 0.0 
3.72 0.0 0.0 
3.73 0.0 0.0 
3.74 0.0 0.0 
3.75 0.0 0.0 
3.76 0.0 0.0 
3.77 0.0 0.0 
3.78 0.0 0.0 
3.79 0.0 0.0 
3.8 0.0 0.0 
3.81 0.0 0.0 
3.82 0.0 0.0 
3.83 0.0 0.0 
3.84 0.0 0.0 
3.85 0.0 0.0 
3.86 0.0 0.0 
3.87 0.0 0.0 
3.88 0.0 0.0 
3.89 0.0 0.0 
3.9 0.0 0.0 
3.91 0.0 0.0 
3.92 0.0 0.0 
3.93 0.0 0.0 
3.94 0.0 0.0 
3.95 0.0 0.0 
3.96 0.0 0.0 
3.97 0.0 0.0 
3.98 0.0 0.0 
3.99 0.0 0.0 
4.0 0.0 0.0 
4.01 0.0 0.0 
4.02 0.0 0.0 
4.03 0.0 0.0 
4.04 0.0 0.0 
4.05 0.0 0.0 
4.06 0.0 0.0 
4.07 0.0 0.0 
4.08 0.0 0.0 
4.09 0.0 0.0 
4.1 0.0 0.0 
4.11 0.0 0.0 
4.12 0.0 0.0 
4.13 0.0 0.0 
4.14 0.0 0.0 
4.15 0.0 0.0 
4.16 0.0 0.0 
4.17 0.0 0.0 
4.18 0.0 0.0 
4.19 0.0 0.0 
4.2 0.0 0.0 
4.21 0.0 0.0 
4.22 0.0 0.0 
4.23 0.0 0.0 
4.24 0.0 0.0 
4.25 0.0 0.0 
4.26 0.0 0.0 
4.27 0.0 0.0 
4.28 0.0 0.0 
4.29 0.0 0.0 
4.3 0.0 0.0 
4.31 0.0 0.0 
4.32 0.0 0.0 
4.33 0.0 0.0 
4.34 0.0 0.0 
4.35 0.0 0.0 
4.36 0.0 0.0 
4.37 0.0 0.0 
4.38 0.0 0.0 
4.39 0.0 0.0 
4.4 0.0 0.0 
4.41 0.0 0.0 
4.42 0.0 0.0 
4.43 0.0 0.0 
4.44 0.0 0.0 
4.45 0.0 0.0 
4.46 0.0 0.0 
4.47 0.0 0.0 
4.48 0.0 0.0 
4.49 0.0 0.0 
4.5 0.0 0.0 
4.51 0.0 0.0 
4.52 0.0 0.0 
4.53 0.0 0.0 
4.54 0.0 0.0 
4.55 0.0 0.0 
4.56 0.0 0.0 
4.57 0.0 0.0 
4.58 0.0 0.0 
4.59 0.0 0.0 
4.6 0.0 0.0 
4.61 0.0 0.0 
4.62 0.0 0.0 
4.63 0.0 0.0 
4.64 0.0 0.0 
4.65 0.0 0.0 
4.66 0.0 0.0 
4.67 0.0 0.0 
4.68 0.0 0.0 
4.69 0.0 0.0 
4.7 0.0 0.0 
4.71 0.0 0.0 
4.72 0.0 0.0 
4.73 0.0 0.0 
4.74 0.0 0.0 
4.75 0.0 0.0 
4.76 0.0 0.0 
4.77 0.0 0.0 
4.78 0.0 0.0 
4.79 0.0 0.0 
4.8 0.0 0.0 
4.81 0.0 0.0 
4.82 0.0 0.0 
4.83 0.0 0.0 
4.84 0.0 0.0 
4.85 0.0 0.0 
4.86 0.0 0.0 
4.87 0.0 0.0 
4.88 0.0 0.0 
4.89 0.0 0.0 
4.9 0.0 0.0 
4.91 0.0 0.0 
4.92 0.0 0.0 
4.93 0.0 0.0 
4.94 0.0 0.0 
4.95 0.0 0.0 
4.96 0.0 0.0 
4.97 0.0 0.0 
4.98 0.0 0.0 
4.99 0.0 0.0 
5.0 0.0 0.0 
5.01 0.0 0.0 
5.02 0.0 0.0 
5.03 0.0 0.0 
5.04 0.0 0.0 
5.05 0.0 0.0 
5.06 0.0 0.0 
5.07 0.0 0.0 
5.08 0.0 0.0 
5.09 0.0 0.0 
5.1 0.0 0.0 
5.11 0.0 0.0 
5.12 0.0 0.0 
5.13 0.0 0.0 
5.14 0.0 0.0 
5.15 0.0 0.0 
5.16 0.0 0.0 
5.17 0.0 0.0 
5.18 0.0 0.0 
5.19 0.0 0.0 
5.2 0.0 0.0 
5.21 0.0 0.0 
5.22 0.0 0.0 
5.23 0.0 0.0 
5.24 0.0 0.0 
5.25 0.0 0.0 
5.26 0.0 0.0 
5.27 0.0 0.0 
5.28 0.0 0.0 
5.29 0.0 0.0 
5.3 0.0 0.0 
5.31 0.0 0.0 
5.32 0.0 0.0 
5.33 0.0 0.0 
5.34 0.0 0.0 
5.35 0.0 0.0 
5.36 0.0 0.0 
5.37 0.0 0.0 
5.38 0.0 0.0 
5.39 0.0 0.0 
5.4 0.0 0.0 
5.41 0.0 0.0 
5.42 0.0 0.0 
5.43 0.0 0.0 
5.44 0.0 0.0 
5.45 0.0 0.0 
5.46 0.0 0.0 
5.47 0.0 0.0 
5.48 0.0 0.0 
5.49 0.0 0.0 
5.5 0.0 0.0 
5.51 0.0 0.0 
5.52 0.0 0.0 
5.53 0.0 0.0 
5.54 0.0 0.0 
5.55 0.0 0.0 
5.56 0.0 0.0 
5.57 0.0 0.0 
5.58 0.0 0.0 
5.59 0.0 0.0 
5.6 0.0 0.0 
5.61 0.0 0.0 
5.62 0.0 0.0 
5.63 0.0 0.0 
5.64 0.0 0.0 
5.65 0.0 0.0 
5.66 0.0 0.0 
5.67 0.0 0.0 
5.68 0.0 0.0 
5.69 0.0 0.0 
5.7 0.0 0.0 
5.71 0.0 0.0 
5.72 0.0 0.0 
5.73 0.0 0.0 
5.74 0.0 0.0 
5.75 0.0 0.0 
5.76 0.0 0.0 
5.77 0.0 0.0 
5.78 0.0 0.0 
5.79 0.0 0.0 
5.8 0.0 0.0 
5.81 0.0 0.0 
5.82 0.0 0.0 
5.83 0.0 0.0 
5.84 0.0 0.0 
5.85 0.0 0.0 
5.86 0.0 0.0 
5.87 0.0 0.0 
5.88 0.0 0.0 
5.89 0.0 0.0 
5.9 0.0 0.0 
5.91 0.0 0.0 
5.92 0.0 0.0 
5.93 0.0 0.0 
5.94 0.0 0.0 
5.95 0.0 0.0 
5.96 0.0 0.0 
5.97 0.0 0.0 
5.98 0.0 0.0 
5.99 0.0 0.0 
6.0 0.0 0.0 
6.01 0.0 0.0 
# local
0.0 -9.7953079069E+00
0.01 -1.0400311409E+01
0.02 -1.0888406632E+01
0.03 -1.1200435759E+01
0.04 -1.1277240974E+01
0.05 -1.1209255048E+01
0.06 -1.1082805427E+01
0.07 -1.0947620831E+01
0.08 -1.0824723658E+01
0.09 -1.0719296734E+01
0.1 -1.0629697231E+01
0.11 -1.0552200672E+01
0.12 -1.0483027171E+01
0.13 -1.0419016416E+01
0.14 -1.0357741770E+01
0.15 -1.0297434680E+01
0.16 -1.0236868006E+01
0.17 -1.0175247464E+01
0.18 -1.0112121292E+01
0.19 -1.0047305980E+01
0.2 -9.9808234246E+00
0.21 -9.9128463822E+00
0.22 -9.8436503701E+00
0.23 -9.7735719697E+00
0.24 -9.7029738376E+00
0.25 -9.6322169180E+00
0.26 -9.5616399874E+00
0.27 -9.4915460360E+00
0.28 -9.4221946690E+00
0.29 -9.3537991265E+00
0.3 -9.2865265731E+00
0.31 -9.2205003077E+00
0.32 -9.1558027948E+00
0.33 -9.0924785976E+00
0.34 -9.0305368263E+00
0.35 -8.9699529387E+00
0.36 -8.9106696470E+00
0.37 -8.8525976536E+00
0.38 -8.7956163315E+00
0.39 -8.7395746729E+00
0.4 -8.6842935256E+00
0.41 -8.6295690309E+00
0.42 -8.5751777523E+00
0.43 -8.5208835233E+00
0.44 -8.4664458092E+00
0.45 -8.4116291209E+00
0.46 -8.3562127953E+00
0.47 -8.3000003168E+00
0.48 -8.2428271911E+00
0.49 -8.1845673552E+00
0.5 -8.1251364881E+00
0.51 -8.0644926540E+00
0.52 -8.0026346953E+00
0.53 -7.9395985751E+00
0.54 -7.8754509157E+00
0.55 -7.8102832830E+00
0.56 -7.7442045501E+00
0.57 -7.6773346132E+00
0.58 -7.6097981896E+00
0.59 -7.5417198577E+00
0.6 -7.4732201798E+00
0.61 -7.4044126046E+00
0.62 -7.3354020632E+00
0.63 -7.2662835375E+00
0.64 -7.1971420148E+00
0.65 -7.1280529085E+00
0.66 -7.0590822441E+00
0.67 -6.9902877566E+00
0.68 -6.9217198555E+00
0.69 -6.8534226258E+00
0.7 -6.7854345116E+00
0.71 -6.7177895103E+00
0.72 -6.6505178739E+00
0.73 -6.5836468129E+00
0.74 -6.5172011142E+00
0.75 -6.4512036077E+00
0.76 -6.3856756197E+00
0.77 -6.3206373121E+00
0.78 -6.2561079364E+00
0.79 -6.1921060357E+00
0.8 -6.1286495929E+00
0.81 -6.0657561346E+00
0.82 -6.0034427989E+00
0.83 -5.9417263711E+00
0.84 -5.8806232961E+00
0.85 -5.8201496694E+00
0.86 -5.7603212132E+00
0.87 -5.7011532385E+00
0.88 -5.6426605986E+00
0.89 -5.5848576333E+00
0.9 -5.5277581083E+00
0.91 -5.4713751498E+00
0.92 -5.4157211748E+00
0.93 -5.3608078208E+00
0.94 -5.3066458721E+00
0.95 -5.2532451864E+00
0.96 -5.2006146500E+00
0.97 -5.1487620332E+00
0.98 -5.0976939521E+00
0.99 -5.0474158034E+00
1.0 -4.9979316802E+00
1.01 -4.9492442981E+00
1.02 -4.9013549271E+00
1.03 -4.8542634146E+00
1.04 -4.8079678026E+00
1.05 -4.7624645403E+00
1.06 -4.7177483280E+00
1.07 -4.6738120477E+00
1.08 -4.6306468941E+00
1.09 -4.5882416969E+00
1.1 -4.5465833716E+00
1.11 -4.5056567463E+00
1.12 -4.4654448539E+00
1.13 -4.4259298481E+00
1.14 -4.3870946833E+00
1.15 -4.3489228924E+00
1.16 -4.3113985506E+00
1.17 -4.2745064577E+00
1.18 -4.2382318993E+00
1.19 -4.2025606063E+00
1.2 -4.1674787716E+00
1.21 -4.1329731249E+00
1.22 -4.0990307195E+00
1.23 -4.0656388980E+00
1.24 -4.0327855198E+00
1.25 -4.0004586688E+00
1.26 -3.9686466511E+00
1.27 -3.9373381834E+00
1.28 -3.9065221765E+00
1.29 -3.8761876992E+00
1.3 -3.8463241824E+00
1.31 -3.8169211999E+00
1.32 -3.7879684651E+00
1.33 -3.7594560262E+00
1.34 -3.7313740213E+00
1.35 -3.7037127811E+00
1.36 -3.6764629142E+00
1.37 -3.6496150905E+00
1.38 -3.6231602853E+00
1.39 -3.5970896520E+00
1.4 -3.5713944446E+00
1.41 -3.5460663178E+00
1.42 -3.5210969494E+00
1.43 -3.4964783706E+00
1.44 -3.4722028189E+00
1.45 -3.4482626548E+00
1.46 -3.4246506993E+00
1.47 -3.4013597263E+00
1.48 -3.3783830415E+00
1.49 -3.3557139795E+00
1.5 -3.3333461989E+00
1.51 -3.3112736518E+00
1.52 -3.2894903707E+00
1.53 -3.2679910124E+00
1.54 -3.2467701693E+00
1.55 -3.2258229108E+00
1.56 -3.2051442058E+00
1.57 -3.1847290067E+00
1.58 -3.1645723052E+00
1.59 -3.1446693226E+00
1.6 -3.1250152668E+00
1.61 -3.1056053810E+00
1.62 -3.0864350882E+00
1.63 -3.0674999620E+00
1.64 -3.0487957324E+00
1.65 -3.0303182431E+00
1.66 -3.0120634156E+00
1.67 -2.9940271521E+00
1.68 -2.9762055892E+00
1.69 -2.9585948974E+00
1.7 -2.9411913974E+00
1.71 -2.9239914167E+00
1.72 -2.9069914394E+00
1.73 -2.8901879713E+00
1.74 -2.8735776456E+00
1.75 -2.8571571408E+00
1.76 -2.8409232236E+00
1.77 -2.8248727423E+00
1.78 -2.8090025834E+00
1.79 -2.7933097620E+00
1.8 -2.7777912717E+00
1.81 -2.7624442908E+00
1.82 -2.7472659091E+00
1.83 -2.7322534622E+00
1.84 -2.7174041320E+00
1.85 -2.7027153831E+00
1.86 -2.6881845381E+00
1.87 -2.6738091286E+00
1.88 -2.6595866351E+00
1.89 -2.6455146440E+00
1.9 -2.6315907931E+00
1.91 -2.6178127142E+00
1.92 -2.6041781993E+00
1.93 -2.5906849203E+00
1.94 -2.5773307925E+00
1.95 -2.5641135986E+00
1.96 -2.5510312912E+00
1.97 -2.5380818020E+00
1.98 -2.5252630984E+00
1.99 -2.5125732639E+00
2.0 -2.5000102769E+00
2.01 -2.4875723360E+00
2.02 -2.4752575202E+00
2.03 -2.4630640399E+00
2.04 -2.4509901208E+00
2.05 -2.4390339638E+00
2.06 -2.4271939251E+00
2.07 -2.4154682479E+00
2.08 -2.4038553365E+00