# 
#  This pseudopotential file has been produced using the code
#  ONCVPSP (Optimized Norm-Conservinng Vanderbilt PSeudopotential)
#  scalar-relativistic version 2.1.1, 03/26/2014 by D. R. Hamann
#  as distributed by Mat-Sim Research at www.mat-simresearch.com.
#  Reference:
#    D. R. Hamann, Phys. Rev. B 88, 085117 (2013)
#    DOI:https://doi.org/10.1103/PhysRevB.88.085117
#
#
#  Pseudopotential generation was done by M. Schlipf and F. Gygi using
#  the input parameters obtained from their optimization algorithm.
#  Reference:
#    M. Schlipf and F. Gygi, Computer Physics Communications (2015)
#    DOI: 10.1016/j.cpc.2015.05.011
#    http://dx.doi.org/10.1016/j.cpc.2015.05.011
#    http://www.quantum-simulation.org
#  License:
#  This work is licensed under the Creative Commons Attribution-ShareAlike
#  4.0 International License. To view a copy of this license, visit
#  http://creativecommons.org/licenses/by-sa/4.0/ or send a letter to
#  Creative Commons, PO Box 1866, Mountain View, CA 94042, USA.
#
#
#  Format:
#    The format of this file has been adapted to match MGmol pseudopotential
#    parser using the script convertONCVPSP_SG15.py
# 
# 
B_ONCV_PBE-1
#
color
#radii of balls and covalent bonds
-1.  -1.
# Nlcc flag
0
# Atomic number
5
# Atomic mass
10.81000042
# Number of valence electrons
3
#Gaussian core charge parameter rc
1.0
# Number of potentials
3
# l-value for state which is local, then type of potential format
2 3
# Local potential radius
3.2
# Non-local potential radius
3.2
# number of points in radial grid
602
# VANDERBILT-KLEINMAN-BYLANDER PROJECTORs
# l, nproj
0 2     0.4341984300E+01     0.1961696616E+00 
1 2    -0.2927848824E+01    -0.7441239753E+00 
# l= 0
0.0 5.2672128122 0.68501345618 
0.01 5.2659478768 0.68436410277 
0.02 5.2621439534 0.68241451485 
0.03 5.2558102058 0.67916608411 
0.04 5.2469557981 0.67462020223 
0.05 5.2355935131 0.66877895272 
0.06 5.2217397065 0.66164524395 
0.07 5.2054142481 0.6532229774 
0.08 5.1866404505 0.64351724883 
0.09 5.165444986 0.63253457993 
0.1 5.1418577933 0.6202831774 
0.11 5.1159119718 0.60677321606 
0.12 5.0876436677 0.59201714247 
0.13 5.0570919501 0.57602999492 
0.14 5.0242986787 0.55882973529 
0.15 4.9893083648 0.54043758901 
0.16 4.9521680246 0.52087838706 
0.17 4.9129270285 0.50018090728 
0.18 4.8716369441 0.47837820736 
0.19 4.8283513766 0.45550794717 
0.2 4.7831258062 0.43161269294 
0.21 4.7360174245 0.40674020177 
0.22 4.6870849695 0.38094367768 
0.23 4.636388561 0.35428199681 
0.24 4.5839895381 0.32681989664 
0.25 4.5299502987 0.2986281303 
0.26 4.4743341416 0.26978356492 
0.27 4.4172051134 0.24036924862 
0.28 4.3586278606 0.21047441528 
0.29 4.2986674858 0.18019443967 
0.3 4.2373894123 0.1496307383 
0.31 4.174859254 0.11889061063 
0.32 4.1111426941 0.088087020394 
0.33 4.0463053708 0.057338331223 
0.34 3.9804127723 0.026767952099 
0.35 3.9135301399 -0.0034960395562 
0.36 3.8457223814 -0.033321368664 
0.37 3.7770539906 -0.062572055043 
0.38 3.7075889801 -0.091108997067 
0.39 3.6373908218 -0.11879058444 
0.4 3.5665223929 -0.14547336068 
0.41 3.4950459371 -0.17101274715 
0.42 3.4230230298 -0.19526379635 
0.43 3.350514554 -0.21808198622 
0.44 3.2775806822 -0.23932404709 
0.45 3.2042808678 -0.25884881571 
0.46 3.1306738411 -0.27651811031 
0.47 3.0568176157 -0.29219760397 
0.48 2.9827694918 -0.30575775729 
0.49 2.9085860738 -0.31707470277 
0.5 2.8343232881 -0.32603113836 
0.51 2.7600364085 -0.33251713936 
0.52 2.6857800664 -0.33643121108 
0.53 2.6116082902 -0.33768095094 
0.54 2.5375745287 -0.33618384354 
0.55 2.4637316656 -0.33186829398 
0.56 2.3901320675 -0.32467384334 
0.57 2.3168275773 -0.31455254557 
0.58 2.2438695698 -0.30146870514 
0.59 2.1713089341 -0.28540039048 
0.6 2.0991961203 -0.26633895003 
0.61 2.0275811232 -0.24429020336 
0.62 1.9565134997 -0.21927433001 
0.63 1.8860423722 -0.19132594394 
0.64 1.8162163981 -0.16049496736 
0.65 1.7470837776 -0.12684594714 
0.66 1.6786922327 -0.090458037905 
0.67 1.6110889504 -0.05142565891 
0.68 1.5443205728 -0.0098574723661 
0.69 1.478433146 0.034123713844 
0.7 1.413472076 0.080381477647 
0.71 1.3494820365 0.12876571568 
0.72 1.2865069342 0.17911386779 
0.73 1.2245898237 0.23125139881 
0.74 1.1637728265 0.28499256411 
0.75 1.1040970432 0.34014126483 
0.76 1.045602472 0.39649203914 
0.77 0.98832786679 0.45383079622 
0.78 0.93231067474 0.51193619377 
0.79 0.87758691469 0.57058065122 
0.8 0.824191065 0.62953152593 
0.81 0.77215594916 0.68855233496 
0.82 0.72151261967 0.74740401415 
0.83 0.6722902413 0.80584620661 
0.84 0.62451597454 0.86363857202 
0.85 0.57821486027 0.92054210805 
0.86 0.53340970672 0.97632047529 
0.87 0.49012097965 1.0307413166 
0.88 0.4483666968 1.0835775621 
0.89 0.40816232764 1.1346087108 
0.9 0.36952069943 1.18362208 
0.91 0.33245191061 1.2304140136 
0.92 0.29696325252 1.2747910404 
0.93 0.26305914032 1.3165709743 
0.94 0.2307411041 1.3555837125 
0.95 0.20000763487 1.391672658 
0.96 0.17085417045 1.4246955555 
0.97 0.14327312983 1.4545250015 
0.98 0.11725387077 1.4810492863 
0.99 0.092782691509 1.5041730006 
1.0 0.069842846639 1.5238175355 
1.01 0.048414619678 1.5399212156 
1.02 0.02847536904 1.5524395235 
1.03 0.0099992918801 1.5613471327 
1.04 -0.0070421408793 1.5666357931 
1.05 -0.022680219399 1.5683149899 
1.06 -0.036948893276 1.5664117678 
1.07 -0.049884461201 1.5609690196 
1.08 -0.0615260947 1.5520497028 
1.09 -0.071915073287 1.5397320706 
1.1 -0.081094799423 1.5241101741 
1.11 -0.089110543878 1.5052923557 
1.12 -0.096009562515 1.4834027063 
1.13 -0.1018408382 1.4585798615 
1.14 -0.10665467567 1.4309741966 
1.15 -0.11050254222 1.4007467796 
1.16 -0.11343714216 1.3680709624 
1.17 -0.11551201242 1.333129823 
1.18 -0.11678122777 1.2961138117 
1.19 -0.11729930209 1.2572195858 
1.2 -0.11712103375 1.2166519635 
1.21 -0.11630108251 1.1746186006 
1.22 -0.11489398945 1.1313301221 
1.23 -0.11295379817 1.0869997074 
1.24 -0.110533747 1.0418401367 
1.25 -0.1076864438 0.99606355533 
1.26 -0.10446334742 0.94988001861 
1.27 -0.10091431557 0.90349449725 
1.28 -0.097088244989 0.85710867503 
1.29 -0.093032168315 0.81091744207 
1.3 -0.088790851575 0.76510596365 
1.31 -0.084407991373 0.71985478699 
1.32 -0.079924390421 0.67533132643 
1.33 -0.075378374979 0.63169074598 
1.34 -0.070807291459 0.58908359945 
1.35 -0.066244031413 0.54763773837 
1.36 -0.061719907717 0.50747243287 
1.37 -0.057264102839 0.46869579849 
1.38 -0.052901168486 0.43139051706 
1.39 -0.048655011974 0.39563600631 
1.4 -0.044545212114 0.36148986031 
1.41 -0.040589076007 0.32900021609 
1.42 -0.036802572494 0.29820933563 
1.43 -0.033196869464 0.26913789284 
1.44 -0.029783179453 0.24180674086 
1.45 -0.026568392312 0.21621693046 
1.46 -0.023558090699 0.19236332086 
1.47 -0.020755938299 0.17023187715 
1.48 -0.018162218657 0.14979255691 
1.49 -0.01577756614 0.13101700957 
1.5 -0.013598082523 0.1138553278 
1.51 -0.011620638726 0.098261259427 
1.52 -0.0098388826858 0.084173206807 
1.53 -0.0082461589772 0.071528179781 
1.54 -0.0068341591822 0.06025533499 
1.55 -0.005593533938 0.050279117504 
1.56 -0.0045143986868 0.041521386669 
1.57 -0.0035856240687 0.033898734788 
1.58 -0.002796136835 0.027327766593 
1.59 -0.0021339273629 0.021721963282 
1.6 -0.0015871477677 0.016994904802 
1.61 -0.0011437226382 0.013061249213 
1.62 -0.00079154137699 0.0098345766614 
1.63 -0.00051909091567 0.0072339176179 
1.64 -0.00031462212197 0.0051763321268 
1.65 -0.00016765398267 0.0035878566586 
1.66 -6.7372948686e-05 0.0023921706617 
1.67 -4.7757234289e-06 0.0015248422937 
1.68 2.9558335683e-05 0.00091867805584 
1.69 4.2743320073e-05 0.00052113030105 
1.7 4.2475498176e-05 0.0002759449007 
1.71 3.3619181618e-05 0.00014453571533 
1.72 2.193805383e-05 8.2709925335e-05 
1.73 9.7594427685e-06 6.7510400487e-05 
1.74 8.1553621867e-07 6.7310017995e-05 
1.75 -5.3588364e-06 7.6381914148e-05 
1.76 -7.5603259435e-06 7.9232286476e-05 
1.77 -7.097689039e-06 7.3046768728e-05 
1.78 -3.9702841376e-06 3.9334785067e-05 
1.79 -4.3922544943e-07 4.248709806e-06 
1.8 4.6371358192e-07 -4.7768951229e-06 
1.81 1.6213147919e-07 -1.6701798318e-06 
1.82 0.0 0.0 
1.83 0.0 0.0 
1.84 0.0 0.0 
1.85 0.0 0.0 
1.86 0.0 0.0 
1.87 0.0 0.0 
1.88 0.0 0.0 
1.89 0.0 0.0 
1.9 0.0 0.0 
1.91 0.0 0.0 
1.92 0.0 0.0 
1.93 0.0 0.0 
1.94 0.0 0.0 
1.95 0.0 0.0 
1.96 0.0 0.0 
1.97 0.0 0.0 
1.98 0.0 0.0 
1.99 0.0 0.0 
2.0 0.0 0.0 
2.01 0.0 0.0 
2.02 0.0 0.0 
2.03 0.0 0.0 
2.04 0.0 0.0 
2.05 0.0 0.0 
2.06 0.0 0.0 
2.07 0.0 0.0 
2.08 0.0 0.0 
2.09 0.0 0.0 
2.1 0.0 0.0 
2.11 0.0 0.0 
2.12 0.0 0.0 
2.13 0.0 0.0 
2.14 0.0 0.0 
2.15 0.0 0.0 
2.16 0.0 0.0 
2.17 0.0 0.0 
2.18 0.0 0.0 
2.19 0.0 0.0 
2.2 0.0 0.0 
2.21 0.0 0.0 
2.22 0.0 0.0 
2.23 0.0 0.0 
2.24 0.0 0.0 
2.25 0.0 0.0 
2.26 0.0 0.0 
2.27 0.0 0.0 
2.28 0.0 0.0 
2.29 0.0 0.0 
2.3 0.0 0.0 
2.31 0.0 0.0 
2.32 0.0 0.0 
2.33 0.0 0.0 
2.34 0.0 0.0 
2.35 0.0 0.0 
2.36 0.0 0.0 
2.37 0.0 0.0 
2.38 0.0 0.0 
2.39 0.0 0.0 
2.4 0.0 0.0 
2.41 0.0 0.0 
2.42 0.0 0.0 
2.43 0.0 0.0 
2.44 0.0 0.0 
2.45 0.0 0.0 
2.46 0.0 0.0 
2.47 0.0 0.0 
2.48 0.0 0.0 
2.49 0.0 0.0 
2.5 0.0 0.0 
2.51 0.0 0.0 
2.52 0.0 0.0 
2.53 0.0 0.0 
2.54 0.0 0.0 
2.55 0.0 0.0 
2.56 0.0 0.0 
2.57 0.0 0.0 
2.58 0.0 0.0 
2.59 0.0 0.0 
2.6 0.0 0.0 
2.61 0.0 0.0 
2.62 0.0 0.0 
2.63 0.0 0.0 
2.64 0.0 0.0 
2.65 0.0 0.0 
2.66 0.0 0.0 
2.67 0.0 0.0 
2.68 0.0 0.0 
2.69 0.0 0.0 
2.7 0.0 0.0 
2.71 0.0 0.0 
2.72 0.0 0.0 
2.73 0.0 0.0 
2.74 0.0 0.0 
2.75 0.0 0.0 
2.76 0.0 0.0 
2.77 0.0 0.0 
2.78 0.0 0.0 
2.79 0.0 0.0 
2.8 0.0 0.0 
2.81 0.0 0.0 
2.82 0.0 0.0 
2.83 0.0 0.0 
2.84 0.0 0.0 
2.85 0.0 0.0 
2.86 0.0 0.0 
2.87 0.0 0.0 
2.88 0.0 0.0 
2.89 0.0 0.0 
2.9 0.0 0.0 
2.91 0.0 0.0 
2.92 0.0 0.0 
2.93 0.0 0.0 
2.94 0.0 0.0 
2.95 0.0 0.0 
2.96 0.0 0.0 
2.97 0.0 0.0 
2.98 0.0 0.0 
2.99 0.0 0.0 
3.0 0.0 0.0 
3.01 0.0 0.0 
3.02 0.0 0.0 
3.03 0.0 0.0 
3.04 0.0 0.0 
3.05 0.0 0.0 
3.06 0.0 0.0 
3.07 0.0 0.0 
3.08 0.0 0.0 
3.09 0.0 0.0 
3.1 0.0 0.0 
3.11 0.0 0.0 
3.12 0.0 0.0 
3.13 0.0 0.0 
3.14 0.0 0.0 
3.15 0.0 0.0 
3.16 0.0 0.0 
3.17 0.0 0.0 
3.18 0.0 0.0 
3.19 0.0 0.0 
3.2 0.0 0.0 
3.21 0.0 0.0 
3.22 0.0 0.0 
3.23 0.0 0.0 
3.24 0.0 0.0 
3.25 0.0 0.0 
3.26 0.0 0.0 
3.27 0.0 0.0 
3.28 0.0 0.0 
3.29 0.0 0.0 
3.3 0.0 0.0 
3.31 0.0 0.0 
3.32 0.0 0.0 
3.33 0.0 0.0 
3.34 0.0 0.0 
3.35 0.0 0.0 
3.36 0.0 0.0 
3.37 0.0 0.0 
3.38 0.0 0.0 
3.39 0.0 0.0 
3.4 0.0 0.0 
3.41 0.0 0.0 
3.42 0.0 0.0 
3.43 0.0 0.0 
3.44 0.0 0.0 
3.45 0.0 0.0 
3.46 0.0 0.0 
3.47 0.0 0.0 
3.48 0.0 0.0 
3.49 0.0 0.0 
3.5 0.0 0.0 
3.51 0.0 0.0 
3.52 0.0 0.0 
3.53 0.0 0.0 
3.54 0.0 0.0 
3.55 0.0 0.0 
3.56 0.0 0.0 
3.57 0.0 0.0 
3.58 0.0 0.0 
3.59 0.0 0.0 
3.6 0.0 0.0 
3.61 0.0 0.0 
3.62 0.0 0.0 
3.63 0.0 0.0 
3.64 0.0 0.0 
3.65 0.0 0.0 
3.66 0.0 0.0 
3.67 0.0 0.0 
3.68 0.0 0.0 
3.69 0.0 0.0 
3.7 0.0 0.0 
3.71 0.0 0.0 
3.72 0.0 0.0 
3.73 0.0 0.0 
3.74 0.0 0.0 
3.75 0.0 0.0 
3.76 0.0 0.0 
3.77 0.0 0.0 
3.78 0.0 0.0 
3.79 0.0 0.0 
3.8 0.0 0.0 
3.81 0.0 0.0 
3.82 0.0 0.0 
3.83 0.0 0.0 
3.84 0.0 0.0 
3.85 0.0 0.0 
3.86 0.0 0.0 
3.87 0.0 0.0 
3.88 0.0 0.0 
3.89 0.0 0.0 
3.9 0.0 0.0 
3.91 0.0 0.0 
3.92 0.0 0.0 
3.93 0.0 0.0 
3.94 0.0 0.0 
3.95 0.0 0.0 
3.96 0.0 0.0 
3.97 0.0 0.0 
3.98 0.0 0.0 
3.99 0.0 0.0 
4.0 0.0 0.0 
4.01 0.0 0.0 
4.02 0.0 0.0 
4.03 0.0 0.0 
4.04 0.0 0.0 
4.05 0.0 0.0 
4.06 0.0 0.0 
4.07 0.0 0.0 
4.08 0.0 0.0 
4.09 0.0 0.0 
4.1 0.0 0.0 
4.11 0.0 0.0 
4.12 0.0 0.0 
4.13 0.0 0.0 
4.14 0.0 0.0 
4.15 0.0 0.0 
4.16 0.0 0.0 
4.17 0.0 0.0 
4.18 0.0 0.0 
4.19 0.0 0.0 
4.2 0.0 0.0 
4.21 0.0 0.0 
4.22 0.0 0.0 
4.23 0.0 0.0 
4.24 0.0 0.0 
4.25 0.0 0.0 
4.26 0.0 0.0 
4.27 0.0 0.0 
4.28 0.0 0.0 
4.29 0.0 0.0 
4.3 0.0 0.0 
4.31 0.0 0.0 
4.32 0.0 0.0 
4.33 0.0 0.0 
4.34 0.0 0.0 
4.35 0.0 0.0 
4.36 0.0 0.0 
4.37 0.0 0.0 
4.38 0.0 0.0 
4.39 0.0 0.0 
4.4 0.0 0.0 
4.41 0.0 0.0 
4.42 0.0 0.0 
4.43 0.0 0.0 
4.44 0.0 0.0 
4.45 0.0 0.0 
4.46 0.0 0.0 
4.47 0.0 0.0 
4.48 0.0 0.0 
4.49 0.0 0.0 
4.5 0.0 0.0 
4.51 0.0 0.0 
4.52 0.0 0.0 
4.53 0.0 0.0 
4.54 0.0 0.0 
4.55 0.0 0.0 
4.56 0.0 0.0 
4.57 0.0 0.0 
4.58 0.0 0.0 
4.59 0.0 0.0 
4.6 0.0 0.0 
4.61 0.0 0.0 
4.62 0.0 0.0 
4.63 0.0 0.0 
4.64 0.0 0.0 
4.65 0.0 0.0 
4.66 0.0 0.0 
4.67 0.0 0.0 
4.68 0.0 0.0 
4.69 0.0 0.0 
4.7 0.0 0.0 
4.71 0.0 0.0 
4.72 0.0 0.0 
4.73 0.0 0.0 
4.74 0.0 0.0 
4.75 0.0 0.0 
4.76 0.0 0.0 
4.77 0.0 0.0 
4.78 0.0 0.0 
4.79 0.0 0.0 
4.8 0.0 0.0 
4.81 0.0 0.0 
4.82 0.0 0.0 
4.83 0.0 0.0 
4.84 0.0 0.0 
4.85 0.0 0.0 
4.86 0.0 0.0 
4.87 0.0 0.0 
4.88 0.0 0.0 
4.89 0.0 0.0 
4.9 0.0 0.0 
4.91 0.0 0.0 
4.92 0.0 0.0 
4.93 0.0 0.0 
4.94 0.0 0.0 
4.95 0.0 0.0 
4.96 0.0 0.0 
4.97 0.0 0.0 
4.98 0.0 0.0 
4.99 0.0 0.0 
5.0 0.0 0.0 
5.01 0.0 0.0 
5.02 0.0 0.0 
5.03 0.0 0.0 
5.04 0.0 0.0 
5.05 0.0 0.0 
5.06 0.0 0.0 
5.07 0.0 0.0 
5.08 0.0 0.0 
5.09 0.0 0.0 
5.1 0.0 0.0 
5.11 0.0 0.0 
5.12 0.0 0.0 
5.13 0.0 0.0 
5.14 0.0 0.0 
5.15 0.0 0.0 
5.16 0.0 0.0 
5.17 0.0 0.0 
5.18 0.0 0.0 
5.19 0.0 0.0 
5.2 0.0 0.0 
5.21 0.0 0.0 
5.22 0.0 0.0 
5.23 0.0 0.0 
5.24 0.0 0.0 
5.25 0.0 0.0 
5.26 0.0 0.0 
5.27 0.0 0.0 
5.28 0.0 0.0 
5.29 0.0 0.0 
5.3 0.0 0.0 
5.31 0.0 0.0 
5.32 0.0 0.0 
5.33 0.0 0.0 
5.34 0.0 0.0 
5.35 0.0 0.0 
5.36 0.0 0.0 
5.37 0.0 0.0 
5.38 0.0 0.0 
5.39 0.0 0.0 
5.4 0.0 0.0 
5.41 0.0 0.0 
5.42 0.0 0.0 
5.43 0.0 0.0 
5.44 0.0 0.0 
5.45 0.0 0.0 
5.46 0.0 0.0 
5.47 0.0 0.0 
5.48 0.0 0.0 
5.49 0.0 0.0 
5.5 0.0 0.0 
5.51 0.0 0.0 
5.52 0.0 0.0 
5.53 0.0 0.0 
5.54 0.0 0.0 
5.55 0.0 0.0 
5.56 0.0 0.0 
5.57 0.0 0.0 
5.58 0.0 0.0 
5.59 0.0 0.0 
5.6 0.0 0.0 
5.61 0.0 0.0 
5.62 0.0 0.0 
5.63 0.0 0.0 
5.64 0.0 0.0 
5.65 0.0 0.0 
5.66 0.0 0.0 
5.67 0.0 0.0 
5.68 0.0 0.0 
5.69 0.0 0.0 
5.7 0.0 0.0 
5.71 0.0 0.0 
5.72 0.0 0.0 
5.73 0.0 0.0 
5.74 0.0 0.0 
5.75 0.0 0.0 
5.76 0.0 0.0 
5.77 0.0 0.0 
5.78 0.0 0.0 
5.79 0.0 0.0 
5.8 0.0 0.0 
5.81 0.0 0.0 
5.82 0.0 0.0 
5.83 0.0 0.0 
5.84 0.0 0.0 
5.85 0.0 0.0 
5.86 0.0 0.0 
5.87 0.0 0.0 
5.88 0.0 0.0 
5.89 0.0 0.0 
5.9 0.0 0.0 
5.91 0.0 0.0 
5.92 0.0 0.0 
5.93 0.0 0.0 
5.94 0.0 0.0 
5.95 0.0 0.0 
5.96 0.0 0.0 
5.97 0.0 0.0 
5.98 0.0 0.0 
5.99 0.0 0.0 
6.0 0.0 0.0 
6.01 0.0 0.0 
# l= 1
0.0 0.0 0.0 
0.01 0.21333498021 0.086244618909 
0.02 0.4261216614 0.17211311895 
0.03 0.63781372152 0.2572309413 
0.04 0.8478687837 0.34122664046 
0.05 1.0557503673 0.423733424 
0.06 1.2609298128 0.50439067222 
0.07 1.4628881729 0.58284543099 
0.08 1.6611180607 0.65875387134 
0.09 1.8551254472 0.73178270959 
0.1 2.0444314012 0.80161058172 
0.11 2.2285737623 0.86792936606 
0.12 2.4071087416 0.9304454487 
0.13 2.5796124426 0.98888092604 
0.14 2.7456822953 1.0429747391 
0.15 2.904938399 1.0924837354 
0.16 3.0570247658 1.1371836524 
0.17 3.2016104635 1.1768700207 
0.18 3.338390649 1.2113589798 
0.19 3.4670874915 1.2404880063 
0.2 3.5874509804 1.2641165488 
0.21 3.6992596161 1.2821265687 
0.22 3.80232098 1.2944229839 
0.23 3.8964721821 1.3009340119 
0.24 3.9815801864 1.3016114146 
0.25 4.0575420143 1.2964306416 
0.26 4.1242848186 1.2853908686 
0.27 4.1817658421 1.2685149387 
0.28 4.2299722483 1.2458491986 
0.29 4.2689208344 1.2174632353 
0.3 4.2986576262 1.1834495141 
0.31 4.3192573574 1.1439229181 
0.32 4.3308228392 1.0990201948 
0.33 4.3334842167 1.0488993038 
0.34 4.3273981312 0.99373868607 
0.35 4.3127467708 0.93373643251 
0.36 4.2897368466 0.8691093891 
0.37 4.2585984511 0.80009215652 
0.38 4.219583871 0.72693604936 
0.39 4.1729663096 0.64990797209 
0.4 4.11903851 0.56928920651 
0.41 4.0581113702 0.48537418828 
0.42 3.9905124697 0.3984692012 
0.43 3.9165845549 0.30889103238 
0.44 3.8366839855 0.2169655876 
0.45 3.7511791483 0.12302647356 
0.46 3.6604488464 0.027413553705 
0.47 3.5648807074 -0.069528484069 
0.48 3.4648694609 -0.16745168033 
0.49 3.3608153526 -0.26600624134 
0.5 3.2531225116 -0.36484202147 
0.51 3.1421974388 -0.46360990132 
0.52 3.0284470974 -0.56196352873 
0.53 2.9122776443 -0.65956048645 
0.54 2.7940928735 -0.75606372181 
0.55 2.6742923612 -0.85114325086 
0.56 2.553270691 -0.94447688533 
0.57 2.4314151285 -1.0357523686 
0.58 2.3091053845 -1.1246676156 
0.59 2.1867111461 -1.2109329829 
0.6 2.0645920123 -1.2942713489 
0.61 1.9430954341 -1.3744200115 
0.62 1.8225561472 -1.4511312218 
0.63 1.7032953589 -1.5241729382 
0.64 1.5856190694 -1.5933303682 
0.65 1.4698180566 -1.6584059827 
0.66 1.356167119 -1.7192202032 
0.67 1.2449236347 -1.7756127063 
0.68 1.1363278384 -1.8274421476 
0.69 1.0306021385 -1.8745867558 
0.7 0.92795087465 -1.9169445136 
0.71 0.82855946938 -1.9544338726 
0.72 0.73259487637 -1.9869932819 
0.73 0.6402052828 -2.0145813787 
0.74 0.5515200985 -2.0371769036 
0.75 0.46665003924 -2.0547785148 
0.76 0.38568736278 -2.0674044551 
0.77 0.30870581135 -2.0750924404 
0.78 0.23576127041 -2.0778989216 
0.79 0.16689204117 -2.0758986556 
0.8 0.10211930099 -2.0691840946 
0.81 0.041447629499 -2.0578646987 
0.82 -0.015134403909 -2.0420661766 
0.83 -0.067653596138 -2.0219296589 
0.84 -0.1161514146 -1.9976108089 
0.85 -0.16068325467 -1.969278876 
0.86 -0.20131765538 -1.9371156975 
0.87 -0.23813547853 -1.9013146544 
0.88 -0.27122905649 -1.8620795866 
0.89 -0.30070131385 -1.8196236742 
0.9 -0.32666486841 -1.7741682909 
0.91 -0.34924111679 -1.7259418364 
0.92 -0.36855931 -1.675178553 
0.93 -0.38475562456 -1.6221173357 
0.94 -0.39797233857 -1.5670007008 
0.95 -0.40835671791 -1.5100732915 
0.96 -0.41606010094 -1.4515807189 
0.97 -0.42123712844 -1.3917685971 
0.98 -0.42404480413 -1.3308813123 
0.99 -0.42464163713 -1.2691609138 
1.0 -0.42318681416 -1.2068460425 
1.01 -0.41983954717 -1.144171105 
1.02 -0.41475837009 -1.0813653635 
1.03 -0.40809936527 -1.018650528 
1.04 -0.40001666084 -0.9562415536 
1.05 -0.39066141084 -0.89434527907 
1.06 -0.38018120938 -0.8331596819 
1.07 -0.36872049469 -0.77287449264 
1.08 -0.35641711239 -0.71366652695 
1.09 -0.34340450295 -0.65570278697 
1.1 -0.32981064444 -0.59913906782 
1.11 -0.31575836277 -0.54412043628 
1.12 -0.30136344408 -0.49077873982 
1.13 -0.28673439178 -0.43923239811 
1.14 -0.27197368595 -0.38958818161 
1.15 -0.25717795453 -0.34194148875 
1.16 -0.24243544961 -0.29637310525 
1.17 -0.22782682174 -0.25295040685 
1.18 -0.21342641788 -0.21172916322 
1.19 -0.19930320361 -0.1727547395 
1.2 -0.18551544551 -0.13605558162 
1.21 -0.17211626207 -0.10165045145 
1.22 -0.15915327695 -0.069547985924 
1.23 -0.14666550416 -0.039743148115 
1.24 -0.13468556438 -0.012220286587 
1.25 -0.12324155128 0.013044663108 
1.26 -0.11235446253 0.036086873503 
1.27 -0.10203903394 0.056951077156 
1.28 -0.092306473549 0.075688709188 
1.29 -0.083161878473 0.092360186318 
1.3 -0.074605368493 0.10703293784 
1.31 -0.066634393527 0.11977968727 
1.32 -0.059241124463 0.1306796845 
1.33 -0.052414678956 0.13981615689 
1.34 -0.046142046398 0.1472767803 
1.35 -0.04040622562 0.15315185705 
1.36 -0.035188992996 0.15753395855 
1.37 -0.030470044194 0.16051831989 
1.38 -0.026227673076 0.16219861922 
1.39 -0.022439122731 0.16267144042 
1.4 -0.019080319189 0.16203207234 
1.41 -0.016126164274 0.16037643726 
1.42 -0.013550279939 0.15780267923 
1.43 -0.011326092262 0.15440444691 
1.44 -0.0094260705921 0.15027850927 
1.45 -0.0078230890658 0.14551624615 
1.46 -0.0064900141836 0.14020819171 
1.47 -0.005399618636 0.134443414 
1.48 -0.0045264989081 0.12830318016 
1.49 -0.003843905323 0.12187282429 
1.5 -0.0033287436363 0.11522389814 
1.51 -0.0029564877906 0.1084325799 
1.52 -0.0027057940023 0.10156366817 
1.53 -0.0025554859826 0.094681223221 
1.54 -0.0024861989773 0.087842934243 
1.55 -0.0024805758952 0.081099946267 
1.56 -0.0025215302606 0.07450215465 
1.57 -0.0025956734684 0.06808780948 
1.58 -0.0026884580882 0.061898404368 
1.59 -0.0027903668817 0.055959895542 
1.6 -0.0028895856026 0.050304933767 
1.61 -0.0029800048245 0.044948742955 
1.62 -0.003053158698 0.039913392414 
1.63 -0.0031054769893 0.035206038937 
1.64 -0.0031317678621 0.030838459095 
1.65 -0.0031307843932 0.026810375242 
1.66 -0.0031001803422 0.023124562069 
1.67 -0.0030407359058 0.019774143392 
1.68 -0.0029524572283 0.01675432802 
1.69 -0.0028377709286 0.014052697035 
1.7 -0.0026985208026 0.011658364822 
1.71 -0.0025383176521 0.009554641609 
1.72 -0.0023603428322 0.0077259627341 
1.73 -0.0021688583552 0.006152830119 
1.74 -0.0019679246809 0.004816290872 
1.75 -0.001761871013 0.0036956423308 
1.76 -0.001555235474 0.0027696707345 
1.77 -0.0013518220549 0.0020181066787 
1.78 -0.0011562654827 0.0014185255599 
1.79 -0.00097141124588 0.0009523386497 
1.8 -0.00080133877284 0.0005976328801 
1.81 -0.00064785318668 0.00033783025272 
1.82 -0.00051381241568 0.00015334690172 
1.83 -0.00039993872249 2.9766551691e-05 
1.84 -0.00030726969611 -4.8493776201e-05 
1.85 -0.00023547819372 -9.3753039936e-05 
1.86 -0.00018329224081 -0.00011620037405 
1.87 -0.00014938366087 -0.00012617511539 
1.88 -0.00013064003432 -0.00012844906467 
1.89 -0.00012882119251 -0.00013602362882 
1.9 -0.00012283884479 -0.00013007021673 
1.91 -7.682008939e-05 -8.1845787553e-05 
1.92 -2.1024098022e-05 -2.2557124414e-05 
1.93 6.785769718e-06 7.164434948e-06 
1.94 6.0849094191e-06 6.4244646532e-06 
1.95 0.0 0.0 
1.96 0.0 0.0 
1.97 0.0 0.0 
1.98 0.0 0.0 
1.99 0.0 0.0 
2.0 0.0 0.0 
2.01 0.0 0.0 
2.02 0.0 0.0 
2.03 0.0 0.0 
2.04 0.0 0.0 
2.05 0.0 0.0 
2.06 0.0 0.0 
2.07 0.0 0.0 
2.08 0.0 0.0 
2.09 0.0 0.0 
2.1 0.0 0.0 
2.11 0.0 0.0 
2.12 0.0 0.0 
2.13 0.0 0.0 
2.14 0.0 0.0 
2.15 0.0 0.0 
2.16 0.0 0.0 
2.17 0.0 0.0 
2.18 0.0 0.0 
2.19 0.0 0.0 
2.2 0.0 0.0 
2.21 0.0 0.0 
2.22 0.0 0.0 
2.23 0.0 0.0 
2.24 0.0 0.0 
2.25 0.0 0.0 
2.26 0.0 0.0 
2.27 0.0 0.0 
2.28 0.0 0.0 
2.29 0.0 0.0 
2.3 0.0 0.0 
2.31 0.0 0.0 
2.32 0.0 0.0 
2.33 0.0 0.0 
2.34 0.0 0.0 
2.35 0.0 0.0 
2.36 0.0 0.0 
2.37 0.0 0.0 
2.38 0.0 0.0 
2.39 0.0 0.0 
2.4 0.0 0.0 
2.41 0.0 0.0 
2.42 0.0 0.0 
2.43 0.0 0.0 
2.44 0.0 0.0 
2.45 0.0 0.0 
2.46 0.0 0.0 
2.47 0.0 0.0 
2.48 0.0 0.0 
2.49 0.0 0.0 
2.5 0.0 0.0 
2.51 0.0 0.0 
2.52 0.0 0.0 
2.53 0.0 0.0 
2.54 0.0 0.0 
2.55 0.0 0.0 
2.56 0.0 0.0 
2.57 0.0 0.0 
2.58 0.0 0.0 
2.59 0.0 0.0 
2.6 0.0 0.0 
2.61 0.0 0.0 
2.62 0.0 0.0 
2.63 0.0 0.0 
2.64 0.0 0.0 
2.65 0.0 0.0 
2.66 0.0 0.0 
2.67 0.0 0.0 
2.68 0.0 0.0 
2.69 0.0 0.0 
2.7 0.0 0.0 
2.71 0.0 0.0 
2.72 0.0 0.0 
2.73 0.0 0.0 
2.74 0.0 0.0 
2.75 0.0 0.0 
2.76 0.0 0.0 
2.77 0.0 0.0 
2.78 0.0 0.0 
2.79 0.0 0.0 
2.8 0.0 0.0 
2.81 0.0 0.0 
2.82 0.0 0.0 
2.83 0.0 0.0 
2.84 0.0 0.0 
2.85 0.0 0.0 
2.86 0.0 0.0 
2.87 0.0 0.0 
2.88 0.0 0.0 
2.89 0.0 0.0 
2.9 0.0 0.0 
2.91 0.0 0.0 
2.92 0.0 0.0 
2.93 0.0 0.0 
2.94 0.0 0.0 
2.95 0.0 0.0 
2.96 0.0 0.0 
2.97 0.0 0.0 
2.98 0.0 0.0 
2.99 0.0 0.0 
3.0 0.0 0.0 
3.01 0.0 0.0 
3.02 0.0 0.0 
3.03 0.0 0.0 
3.04 0.0 0.0 
3.05 0.0 0.0 
3.06 0.0 0.0 
3.07 0.0 0.0 
3.08 0.0 0.0 
3.09 0.0 0.0 
3.1 0.0 0.0 
3.11 0.0 0.0 
3.12 0.0 0.0 
3.13 0.0 0.0 
3.14 0.0 0.0 
3.15 0.0 0.0 
3.16 0.0 0.0 
3.17 0.0 0.0 
3.18 0.0 0.0 
3.19 0.0 0.0 
3.2 0.0 0.0 
3.21 0.0 0.0 
3.22 0.0 0.0 
3.23 0.0 0.0 
3.24 0.0 0.0 
3.25 0.0 0.0 
3.26 0.0 0.0 
3.27 0.0 0.0 
3.28 0.0 0.0 
3.29 0.0 0.0 
3.3 0.0 0.0 
3.31 0.0 0.0 
3.32 0.0 0.0 
3.33 0.0 0.0 
3.34 0.0 0.0 
3.35 0.0 0.0 
3.36 0.0 0.0 
3.37 0.0 0.0 
3.38 0.0 0.0 
3.39 0.0 0.0 
3.4 0.0 0.0 
3.41 0.0 0.0 
3.42 0.0 0.0 
3.43 0.0 0.0 
3.44 0.0 0.0 
3.45 0.0 0.0 
3.46 0.0 0.0 
3.47 0.0 0.0 
3.48 0.0 0.0 
3.49 0.0 0.0 
3.5 0.0 0.0 
3.51 0.0 0.0 
3.52 0.0 0.0 
3.53 0.0 0.0 
3.54 0.0 0.0 
3.55 0.0 0.0 
3.56 0.0 0.0 
3.57 0.0 0.0 
3.58 0.0 0.0 
3.59 0.0 0.0 
3.6 0.0 0.0 
3.61 0.0 0.0 
3.62 0.0 0.0 
3.63 0.0 0.0 
3.64 0.0 0.0 
3.65 0.0 0.0 
3.66 0.0 0.0 
3.67 0.0 0.0 
3.68 0.0 0.0 
3.69 0.0 0.0 
3.7 0.0 0.0 
3.71 0.0 0.0 
3.72 0.0 0.0 
3.73 0.0 0.0 
3.74 0.0 0.0 
3.75 0.0 0.0 
3.76 0.0 0.0 
3.77 0.0 0.0 
3.78 0.0 0.0 
3.79 0.0 0.0 
3.8 0.0 0.0 
3.81 0.0 0.0 
3.82 0.0 0.0 
3.83 0.0 0.0 
3.84 0.0 0.0 
3.85 0.0 0.0 
3.86 0.0 0.0 
3.87 0.0 0.0 
3.88 0.0 0.0 
3.89 0.0 0.0 
3.9 0.0 0.0 
3.91 0.0 0.0 
3.92 0.0 0.0 
3.93 0.0 0.0 
3.94 0.0 0.0 
3.95 0.0 0.0 
3.96 0.0 0.0 
3.97 0.0 0.0 
3.98 0.0 0.0 
3.99 0.0 0.0 
4.0 0.0 0.0 
4.01 0.0 0.0 
4.02 0.0 0.0 
4.03 0.0 0.0 
4.04 0.0 0.0 
4.05 0.0 0.0 
4.06 0.0 0.0 
4.07 0.0 0.0 
4.08 0.0 0.0 
4.09 0.0 0.0 
4.1 0.0 0.0 
4.11 0.0 0.0 
4.12 0.0 0.0 
4.13 0.0 0.0 
4.14 0.0 0.0 
4.15 0.0 0.0 
4.16 0.0 0.0 
4.17 0.0 0.0 
4.18 0.0 0.0 
4.19 0.0 0.0 
4.2 0.0 0.0 
4.21 0.0 0.0 
4.22 0.0 0.0 
4.23 0.0 0.0 
4.24 0.0 0.0 
4.25 0.0 0.0 
4.26 0.0 0.0 
4.27 0.0 0.0 
4.28 0.0 0.0 
4.29 0.0 0.0 
4.3 0.0 0.0 
4.31 0.0 0.0 
4.32 0.0 0.0 
4.33 0.0 0.0 
4.34 0.0 0.0 
4.35 0.0 0.0 
4.36 0.0 0.0 
4.37 0.0 0.0 
4.38 0.0 0.0 
4.39 0.0 0.0 
4.4 0.0 0.0 
4.41 0.0 0.0 
4.42 0.0 0.0 
4.43 0.0 0.0 
4.44 0.0 0.0 
4.45 0.0 0.0 
4.46 0.0 0.0 
4.47 0.0 0.0 
4.48 0.0 0.0 
4.49 0.0 0.0 
4.5 0.0 0.0 
4.51 0.0 0.0 
4.52 0.0 0.0 
4.53 0.0 0.0 
4.54 0.0 0.0 
4.55 0.0 0.0 
4.56 0.0 0.0 
4.57 0.0 0.0 
4.58 0.0 0.0 
4.59 0.0 0.0 
4.6 0.0 0.0 
4.61 0.0 0.0 
4.62 0.0 0.0 
4.63 0.0 0.0 
4.64 0.0 0.0 
4.65 0.0 0.0 
4.66 0.0 0.0 
4.67 0.0 0.0 
4.68 0.0 0.0 
4.69 0.0 0.0 
4.7 0.0 0.0 
4.71 0.0 0.0 
4.72 0.0 0.0 
4.73 0.0 0.0 
4.74 0.0 0.0 
4.75 0.0 0.0 
4.76 0.0 0.0 
4.77 0.0 0.0 
4.78 0.0 0.0 
4.79 0.0 0.0 
4.8 0.0 0.0 
4.81 0.0 0.0 
4.82 0.0 0.0 
4.83 0.0 0.0 
4.84 0.0 0.0 
4.85 0.0 0.0 
4.86 0.0 0.0 
4.87 0.0 0.0 
4.88 0.0 0.0 
4.89 0.0 0.0 
4.9 0.0 0.0 
4.91 0.0 0.0 
4.92 0.0 0.0 
4.93 0.0 0.0 
4.94 0.0 0.0 
4.95 0.0 0.0 
4.96 0.0 0.0 
4.97 0.0 0.0 
4.98 0.0 0.0 
4.99 0.0 0.0 
5.0 0.0 0.0 
5.01 0.0 0.0 
5.02 0.0 0.0 
5.03 0.0 0.0 
5.04 0.0 0.0 
5.05 0.0 0.0 
5.06 0.0 0.0 
5.07 0.0 0.0 
5.08 0.0 0.0 
5.09 0.0 0.0 
5.1 0.0 0.0 
5.11 0.0 0.0 
5.12 0.0 0.0 
5.13 0.0 0.0 
5.14 0.0 0.0 
5.15 0.0 0.0 
5.16 0.0 0.0 
5.17 0.0 0.0 
5.18 0.0 0.0 
5.19 0.0 0.0 
5.2 0.0 0.0 
5.21 0.0 0.0 
5.22 0.0 0.0 
5.23 0.0 0.0 
5.24 0.0 0.0 
5.25 0.0 0.0 
5.26 0.0 0.0 
5.27 0.0 0.0 
5.28 0.0 0.0 
5.29 0.0 0.0 
5.3 0.0 0.0 
5.31 0.0 0.0 
5.32 0.0 0.0 
5.33 0.0 0.0 
5.34 0.0 0.0 
5.35 0.0 0.0 
5.36 0.0 0.0 
5.37 0.0 0.0 
5.38 0.0 0.0 
5.39 0.0 0.0 
5.4 0.0 0.0 
5.41 0.0 0.0 
5.42 0.0 0.0 
5.43 0.0 0.0 
5.44 0.0 0.0 
5.45 0.0 0.0 
5.46 0.0 0.0 
5.47 0.0 0.0 
5.48 0.0 0.0 
5.49 0.0 0.0 
5.5 0.0 0.0 
5.51 0.0 0.0 
5.52 0.0 0.0 
5.53 0.0 0.0 
5.54 0.0 0.0 
5.55 0.0 0.0 
5.56 0.0 0.0 
5.57 0.0 0.0 
5.58 0.0 0.0 
5.59 0.0 0.0 
5.6 0.0 0.0 
5.61 0.0 0.0 
5.62 0.0 0.0 
5.63 0.0 0.0 
5.64 0.0 0.0 
5.65 0.0 0.0 
5.66 0.0 0.0 
5.67 0.0 0.0 
5.68 0.0 0.0 
5.69 0.0 0.0 
5.7 0.0 0.0 
5.71 0.0 0.0 
5.72 0.0 0.0 
5.73 0.0 0.0 
5.74 0.0 0.0 
5.75 0.0 0.0 
5.76 0.0 0.0 
5.77 0.0 0.0 
5.78 0.0 0.0 
5.79 0.0 0.0 
5.8 0.0 0.0 
5.81 0.0 0.0 
5.82 0.0 0.0 
5.83 0.0 0.0 
5.84 0.0 0.0 
5.85 0.0 0.0 
5.86 0.0 0.0 
5.87 0.0 0.0 
5.88 0.0 0.0 
5.89 0.0 0.0 
5.9 0.0 0.0 
5.91 0.0 0.0 
5.92 0.0 0.0 
5.93 0.0 0.0 
5.94 0.0 0.0 
5.95 0.0 0.0 
5.96 0.0 0.0 
5.97 0.0 0.0 
5.98 0.0 0.0 
5.99 0.0 0.0 
6.0 0.0 0.0 
6.01 0.0 0.0 
# local
0.0 -2.6788159409E+00
0.01 -5.7414999492E+00
0.02 -6.8334062996E+00
0.03 -6.6947316138E+00
0.04 -6.0656725134E+00
0.05 -5.5906396761E+00
0.06 -5.3215205251E+00
0.07 -5.1765526339E+00
0.08 -5.0955795603E+00
0.09 -5.0470482315E+00
0.1 -5.0155465087E+00
0.11 -4.9935065016E+00
0.12 -4.9770771495E+00
0.13 -4.9641970163E+00
0.14 -4.9536938223E+00
0.15 -4.9448529534E+00
0.16 -4.9372029104E+00
0.17 -4.9304042989E+00
0.18 -4.9241899610E+00
0.19 -4.9183316090E+00
0.2 -4.9126208279E+00
0.21 -4.9068583483E+00
0.22 -4.9008483699E+00
0.23 -4.8943961731E+00
0.24 -4.8873079906E+00
0.25 -4.8793924947E+00
0.26 -4.8704634392E+00
0.27 -4.8603431276E+00
0.28 -4.8488663844E+00
0.29 -4.8358847632E+00
0.3 -4.8212707354E+00
0.31 -4.8049215981E+00
0.32 -4.7867628623E+00
0.33 -4.7667510166E+00
0.34 -4.7448752054E+00
0.35 -4.7211581122E+00
0.36 -4.6956554760E+00
0.37 -4.6684547363E+00
0.38 -4.6396722604E+00
0.39 -4.6094497449E+00
0.4 -4.5779497984E+00
0.41 -4.5453507091E+00
0.42 -4.5118409740E+00
0.43 -4.4776136944E+00
0.44 -4.4428611571E+00
0.45 -4.4077698587E+00
0.46 -4.3725161900E+00
0.47 -4.3372629881E+00
0.48 -4.3021568128E+00
0.49 -4.2673263328E+00
0.5 -4.2328815295E+00
0.51 -4.1989137920E+00
0.52 -4.1654961232E+00
0.53 -4.1326846521E+00
0.54 -4.1005199739E+00
0.55 -4.0690284921E+00
0.56 -4.0382246381E+00
0.57 -4.0081118769E+00
0.58 -3.9786849284E+00
0.59 -3.9499305339E+00
0.6 -3.9218291880E+00
0.61 -3.8943558097E+00
0.62 -3.8674807855E+00
0.63 -3.8411706973E+00
0.64 -3.8153887599E+00
0.65 -3.7900954945E+00
0.66 -3.7652491398E+00
0.67 -3.7408059768E+00
0.68 -3.7167208510E+00
0.69 -3.6929475607E+00
0.7 -3.6694393009E+00
0.71 -3.6461491517E+00
0.72 -3.6230306094E+00
0.73 -3.6000381233E+00
0.74 -3.5771276589E+00
0.75 -3.5542572620E+00
0.76 -3.5313875794E+00
0.77 -3.5084824961E+00
0.78 -3.4855094992E+00
0.79 -3.4624401152E+00
0.8 -3.4392502330E+00
0.81 -3.4159203333E+00
0.82 -3.3924356170E+00
0.83 -3.3687860297E+00
0.84 -3.3449661842E+00
0.85 -3.3209751864E+00
0.86 -3.2968163755E+00
0.87 -3.2724969890E+00
0.88 -3.2480277708E+00
0.89 -3.2234225347E+00
0.9 -3.1986977024E+00
0.91 -3.1738718303E+00
0.92 -3.1489651399E+00
0.93 -3.1239990648E+00
0.94 -3.0989958236E+00
0.95 -3.0739780456E+00
0.96 -3.0489683880E+00
0.97 -3.0239892348E+00
0.98 -2.9990624382E+00
0.99 -2.9742091033E+00
1.0 -2.9494494154E+00
1.01 -2.9248025272E+00
1.02 -2.9002864707E+00
1.03 -2.8759179622E+00
1.04 -2.8517125211E+00
1.05 -2.8276844181E+00
1.06 -2.8038466887E+00
1.07 -2.7802112592E+00
1.08 -2.7567886743E+00
1.09 -2.7335884477E+00
1.1 -2.7106190424E+00
1.11 -2.6878879834E+00
1.12 -2.6654017786E+00
1.13 -2.6431660085E+00
1.14 -2.6211855042E+00
1.15 -2.5994644126E+00
1.16 -2.5780060843E+00
1.17 -2.5568132063E+00
1.18 -2.5358879285E+00
1.19 -2.5152319482E+00
1.2 -2.4948462470E+00
1.21 -2.4747314459E+00
1.22 -2.4548877982E+00
1.23 -2.4353150432E+00
1.24 -2.4160125379E+00
1.25 -2.3969793674E+00
1.26 -2.3782142126E+00
1.27 -2.3597153770E+00
1.28 -2.3414809538E+00
1.29 -2.3235086642E+00
1.3 -2.3057958743E+00
1.31 -2.2883397831E+00
1.32 -2.2711371759E+00
1.33 -2.2541845283E+00
1.34 -2.2374781845E+00
1.35 -2.2210139504E+00
1.36 -2.2047874504E+00
1.37 -2.1887940475E+00
1.38 -2.1730285758E+00
1.39 -2.1574858465E+00
1.4 -2.1421605432E+00
1.41 -2.1270476497E+00
1.42 -2.1121422519E+00
1.43 -2.0974398534E+00
1.44 -2.0829359534E+00
1.45 -2.0686264086E+00
1.46 -2.0545071781E+00
1.47 -2.0405743755E+00
1.48 -2.0268243815E+00
1.49 -2.0132535482E+00
1.5 -1.9998585882E+00
1.51 -1.9866361532E+00
1.52 -1.9735831565E+00
1.53 -1.9606965430E+00
1.54 -1.9479733963E+00
1.55 -1.9354109088E+00
1.56 -1.9230063155E+00
1.57 -1.9107570103E+00