# 
#  This pseudopotential file has been produced using the code
#  ONCVPSP (Optimized Norm-Conservinng Vanderbilt PSeudopotential)
#  scalar-relativistic version 2.1.1, 03/26/2014 by D. R. Hamann
#  as distributed by Mat-Sim Research at www.mat-simresearch.com.
#  Reference:
#    D. R. Hamann, Phys. Rev. B 88, 085117 (2013)
#    DOI:https://doi.org/10.1103/PhysRevB.88.085117
#
#
#  Pseudopotential generation was done by M. Schlipf and F. Gygi using
#  the input parameters obtained from their optimization algorithm.
#  Reference:
#    M. Schlipf and F. Gygi, Computer Physics Communications (2015)
#    DOI: 10.1016/j.cpc.2015.05.011
#    http://dx.doi.org/10.1016/j.cpc.2015.05.011
#    http://www.quantum-simulation.org
#  License:
#  This work is licensed under the Creative Commons Attribution-ShareAlike
#  4.0 International License. To view a copy of this license, visit
#  http://creativecommons.org/licenses/by-sa/4.0/ or send a letter to
#  Creative Commons, PO Box 1866, Mountain View, CA 94042, USA.
#
#
#  Format:
#    The format of this file has been adapted to match MGmol pseudopotential
#    parser using the script convertONCVPSP_SG15.py
# 
# 
SG15_Be_ONCV_PBE-1
#color
undefined
#radii of balls and covalent bonds
-1.  -1.
# Nlcc flag
0
# Atomic number
4
# Atomic mass
9.01220036
# Number of valence electrons
4
#Gaussian core charge parameter rc
1.0
# Number of potentials
3
# l-value for state which is local, then type of potential format
2 3
# Local potential radius
3.2
# Non-local potential radius
3.2
# number of points in radial grid
602
# VANDERBILT-KLEINMAN-BYLANDER PROJECTORs
# l, nproj
0 2    -0.8905004386E+01    -0.2394006667E+01 
1 2    -0.5051434399E+01    -0.7360046472E+00 
# l= 0
0.0 7.6811435831 4.8166167411 
0.01 7.6779154041 4.8123043839 
0.02 7.6681932508 4.7992987033 
0.03 7.6520149278 4.777668725 
0.04 7.6294182395 4.7474834745 
0.05 7.600455924 4.7088391722 
0.06 7.5651954667 4.6618588198 
0.07 7.5237188606 4.6066916735 
0.08 7.4761223172 4.5435126039 
0.09 7.4225159265 4.4725213488 
0.1 7.3630232694 4.3939416603 
0.11 7.2977809841 4.3080203515 
0.12 7.2269382869 4.215026248 
0.13 7.1506564514 4.1152490477 
0.14 7.0691082472 4.0089980975 
0.15 6.9824773413 3.8966010897 
0.16 6.8909576635 3.7784026872 
0.17 6.7947527407 3.6547630824 
0.18 6.6940750002 3.5260564983 
0.19 6.5891450487 3.3926696404 
0.2 6.4801909251 3.2550001002 
0.21 6.3674473362 3.1134547304 
0.22 6.2511548725 2.9684479853 
0.23 6.1315592127 2.8204002472 
0.24 6.0089103162 2.6697361374 
0.25 5.8834616106 2.516882827 
0.26 5.7554691736 2.3622683497 
0.27 5.625190916 2.2063199281 
0.28 5.4928857675 2.0494623214 
0.29 5.3588128687 1.8921162002 
0.3 5.2232307735 1.7346965566 
0.31 5.0863966629 1.5776111564 
0.32 4.9485655765 1.4212590465 
0.33 4.8099896648 1.2660291197 
0.34 4.6709174485 1.1122987046 
0.35 4.5315931392 0.96043233009 
0.36 4.3922559262 0.810780388 
0.37 4.2531393615 0.66367807135 
0.38 4.1144707359 0.51944427985 
0.39 3.976470475 0.37838058349 
0.4 3.8393516188 0.2407703992 
0.41 3.7033193043 0.10687817302 
0.42 3.5685702942 -0.02305131806 
0.43 3.4352925482 -0.14879356343 
0.44 3.3036648339 -0.27014481449 
0.45 3.1738563813 -0.38692247779 
0.46 3.0460265802 -0.49896540469 
0.47 2.920324722 -0.60613407604 
0.48 2.7968898086 -0.70831063679 
0.49 2.6758503523 -0.80539894228 
0.5 2.5573242138 -0.89732450642 
0.51 2.4414185956 -0.98403413055 
0.52 2.328230055 -1.0654954993 
0.53 2.2178442488 -1.1416972669 
0.54 2.1103363148 -1.21264792 
0.55 2.0057707235 -1.2783756442 
0.56 1.9042014777 -1.3389275145 
0.57 1.8056723368 -1.3943686574 
0.58 1.7102168848 -1.4447816614 
0.59 1.6178588938 -1.490265484 
0.6 1.5286125631 -1.5309345599 
0.61 1.4424826696 -1.5669180313 
0.62 1.3594652975 -1.598358102 
0.63 1.2795476174 -1.6254097833 
0.64 1.202708729 -1.6482390898 
0.65 1.1289200635 -1.6670219242 
0.66 1.0581453887 -1.68194338 
0.67 0.9903416759 -1.6931960064 
0.68 0.92545946814 -1.7009787176 
0.69 0.8634432847 -1.7054956231 
0.7 0.80423204217 -1.706954798 
0.71 0.74775971036 -1.7055669239 
0.72 0.69395574897 -1.7015441092 
0.73 0.64274562161 -1.6950986752 
0.74 0.59405129706 -1.686441969 
0.75 0.54779169971 -1.6757831006 
0.76 0.50388331175 -1.6633278484 
0.77 0.46224063669 -1.6492775235 
0.78 0.42277669471 -1.6338278811 
0.79 0.38540350994 -1.617168072 
0.8 0.35003258807 -1.599479635 
0.81 0.31657538214 -1.5809355369 
0.82 0.28494374526 -1.5616992596 
0.83 0.25505036837 -1.5419239386 
0.84 0.22680920203 -1.5217515541 
0.85 0.20013586071 -1.5013121758 
0.86 0.17494800886 -1.4807232634 
0.87 0.15116572748 -1.4600890227 
0.88 0.12871186071 -1.4394998179 
0.89 0.10751234155 -1.4190316403 
0.9 0.087496496167 -1.3987456338 
0.91 0.068597326482 -1.3786876747 
0.92 0.050751770462 -1.3588880082 
0.93 0.03390094001 -1.3393609373 
0.94 0.017990336206 -1.3201045657 
0.95 0.0029700418584 -1.3011005919 
0.96 -0.011205115072 -1.2823141739 
0.97 -0.024575587936 -1.2636943849 
0.98 -0.037176440716 -1.245172352 
0.99 -0.049037748419 -1.2266629338 
1.0 -0.06018435603 -1.2080642028 
1.01 -0.070635813653 -1.1892574961 
1.02 -0.080406333315 -1.1701075199 
1.03 -0.089504971883 -1.1504630622 
1.04 -0.097935239552 -1.130156724 
1.05 -0.10569373014 -1.1089885583 
1.06 -0.11277020931 -1.086728395 
1.07 -0.11914888749 -1.0631321031 
1.08 -0.12481065766 -1.0379620794 
1.09 -0.12973635205 -1.0110205826 
1.1 -0.1339123048 -0.98218600726 
1.11 -0.13733332695 -0.95142328894 
1.12 -0.14000462393 -0.9187898154 
1.13 -0.1419444408 -0.8844454638 
1.14 -0.14318642901 -0.84864937903 
1.15 -0.14377398684 -0.81171121249 
1.16 -0.14375885234 -0.77397840202 
1.17 -0.14319961588 -0.73581440646 
1.18 -0.14215582676 -0.69755681415 
1.19 -0.14068545421 -0.65951012106 
1.2 -0.13884466402 -0.62194668036 
1.21 -0.13668218834 -0.585064704 
1.22 -0.13424198502 -0.54902460453 
1.23 -0.13156351137 -0.51394966902 
1.24 -0.1286790783 -0.47991189251 
1.25 -0.12561687891 -0.44695840514 
1.26 -0.12240219253 -0.41511844964 
1.27 -0.11905611661 -0.38439864925 
1.28 -0.11559762011 -0.35479722952 
1.29 -0.11204438862 -0.32630704836 
1.3 -0.10841209658 -0.29891484237 
1.31 -0.10471559118 -0.27260685211 
1.32 -0.10096918401 -0.24736837797 
1.33 -0.097186101148 -0.22318493521 
1.34 -0.093379207595 -0.20004258272 
1.35 -0.089561009131 -0.17792772124 
1.36 -0.085743119576 -0.15682753445 
1.37 -0.081936968336 -0.13672918296 
1.38 -0.078153353451 -0.11762009426 
1.39 -0.074402330612 -0.099487220661 
1.4 -0.070693866667 -0.082317585684 
1.41 -0.067036721398 -0.066097018226 
1.42 -0.063439473883 -0.050811005693 
1.43 -0.059909990195 -0.036444144683 
1.44 -0.056455225612 -0.022979567349 
1.45 -0.053082132225 -0.010400438362 
1.46 -0.049796181008 0.0013125364338 
1.47 -0.04660294681 0.012178484544 
1.48 -0.043506907502 0.022218381553 
1.49 -0.040512090469 0.031453928837 
1.5 -0.037622060944 0.039907614523 
1.51 -0.034839366971 0.047603481535 
1.52 -0.032166681876 0.054565427865 
1.53 -0.029605272268 0.060819335416 
1.54 -0.027156742226 0.066390627091 
1.55 -0.024821440155 0.071306301819 
1.56 -0.022599830113 0.075593163403 
1.57 -0.020491515781 0.079278931089 
1.58 -0.018495924498 0.082391362658 
1.59 -0.016611981857 0.084958646895 
1.6 -0.01483822937 0.087009009855 
1.61 -0.013172979281 0.088570854533 
1.62 -0.011614041863 0.089672409981 
1.63 -0.010159183133 0.09034202812 
1.64 -0.0088056325499 0.090607517556 
1.65 -0.0075506814092 0.090496903555 
1.66 -0.0063911194103 0.090037205727 
1.67 -0.0053238394117 0.089255839362 
1.68 -0.0043453197186 0.088178729079 
1.69 -0.0034521353149 0.086832392751 
1.7 -0.0026405666102 0.085241421004 
1.71 -0.0019069547347 0.0834311462 
1.72 -0.001247479323 0.081424655358 
1.73 -0.00065833431506 0.079245809669 
1.74 -0.00013567821761 0.076916092717 
1.75 0.00032435364882 0.074457614766 
1.76 0.00072556237561 0.071890223471 
1.77 0.0010717816371 0.069234009568 
1.78 0.0013667286275 0.066507212892 
1.79 0.0016141167068 0.063727656048 
1.8 0.0018175524714 0.060912047184 
1.81 0.0019805423518 0.058075726175 
1.82 0.0021065695844 0.055233974098 
1.83 0.0021988535854 0.052399487534 
1.84 0.0022607505971 0.049586226984 
1.85 0.00229513029 0.046804202493 
1.86 0.0023052047407 0.044066017008 
1.87 0.0022935144476 0.041379472347 
1.88 0.0022629539437 0.038754774632 
1.89 0.0022158835647 0.036198688922 
1.9 0.0021547743079 0.033718618379 
1.91 0.0020818476516 0.031320527555 
1.92 0.0019991009191 0.029009026272 
1.93 0.0019086473762 0.026789416526 
1.94 0.0018120100209 0.024663779136 
1.95 0.0017111448686 0.022636466559 
1.96 0.0016072511389 0.020707997147 
1.97 0.0015018650184 0.018880536671 
1.98 0.0013961316149 0.017154417771 
1.99 0.0012910809013 0.015529406958 
2.0 0.0011878307759 0.014005692517 
2.01 0.0010869709317 0.012581165218 
2.02 0.0009894715955 0.01125529849 
2.03 0.00089571959026 0.010025245935 
2.04 0.00080628946988 0.0088888650936 
2.05 0.00072160457739 0.0078434906952 
2.06 0.00064182159794 0.006885508906 
2.07 0.00056737622349 0.0060122141083 
2.08 0.00049818226932 0.0052193182155 
2.09 0.00043440024458 0.0045032220189 
2.1 0.00037601328321 0.0038599144662 
2.11 0.00032287361491 0.0032850756709 
2.12 0.00027499455693 0.0027746619581 
2.13 0.00023207845273 0.0023242497422 
2.14 0.00019396890637 0.0019295048145 
2.15 0.00016043019826 0.0015861593307 
2.16 0.00013114898907 0.001290010385 
2.17 0.00010588716333 0.0010365945346 
2.18 8.4301184373e-05 0.00082212070972 
2.19 6.6077499049e-05 0.00064245917691 
2.2 5.090287397e-05 0.00049364090998 
2.21 3.8455751479e-05 0.00037237291668 
2.22 2.8398966561e-05 0.00027465808634 
2.23 2.0443322461e-05 0.00019755867457 
2.24 1.4298775285e-05 0.00013815420613 
2.25 9.6321364708e-06 9.2887094434e-05 
2.26 6.244232964e-06 5.996669781e-05 
2.27 3.8596141114e-06 3.6673121724e-05 
2.28 2.2405828686e-06 2.0687488985e-05 
2.29 1.2527125037e-06 1.0787855552e-05 
2.3 6.569089789e-07 4.7071304383e-06 
2.31 3.4916958941e-07 1.45933694e-06 
2.32 2.5454979629e-07 3.3406622651e-07 
2.33 2.0139964113e-07 -3.6403384159e-07 
2.34 1.9968322583e-07 -4.2097568493e-07 
2.35 2.0393531976e-07 -1.5172578742e-07 
2.36 1.2702675552e-07 -1.2187714122e-07 
2.37 4.7503168586e-08 -5.2792687124e-08 
2.38 -6.6288903369e-09 4.7062097982e-09 
2.39 -1.3914648314e-08 9.8787656611e-09 
2.4 -6.6935555802e-09 4.7521191716e-09 
2.41 0.0 0.0 
2.42 0.0 0.0 
2.43 0.0 0.0 
2.44 0.0 0.0 
2.45 0.0 0.0 
2.46 0.0 0.0 
2.47 0.0 0.0 
2.48 0.0 0.0 
2.49 0.0 0.0 
2.5 0.0 0.0 
2.51 0.0 0.0 
2.52 0.0 0.0 
2.53 0.0 0.0 
2.54 0.0 0.0 
2.55 0.0 0.0 
2.56 0.0 0.0 
2.57 0.0 0.0 
2.58 0.0 0.0 
2.59 0.0 0.0 
2.6 0.0 0.0 
2.61 0.0 0.0 
2.62 0.0 0.0 
2.63 0.0 0.0 
2.64 0.0 0.0 
2.65 0.0 0.0 
2.66 0.0 0.0 
2.67 0.0 0.0 
2.68 0.0 0.0 
2.69 0.0 0.0 
2.7 0.0 0.0 
2.71 0.0 0.0 
2.72 0.0 0.0 
2.73 0.0 0.0 
2.74 0.0 0.0 
2.75 0.0 0.0 
2.76 0.0 0.0 
2.77 0.0 0.0 
2.78 0.0 0.0 
2.79 0.0 0.0 
2.8 0.0 0.0 
2.81 0.0 0.0 
2.82 0.0 0.0 
2.83 0.0 0.0 
2.84 0.0 0.0 
2.85 0.0 0.0 
2.86 0.0 0.0 
2.87 0.0 0.0 
2.88 0.0 0.0 
2.89 0.0 0.0 
2.9 0.0 0.0 
2.91 0.0 0.0 
2.92 0.0 0.0 
2.93 0.0 0.0 
2.94 0.0 0.0 
2.95 0.0 0.0 
2.96 0.0 0.0 
2.97 0.0 0.0 
2.98 0.0 0.0 
2.99 0.0 0.0 
3.0 0.0 0.0 
3.01 0.0 0.0 
3.02 0.0 0.0 
3.03 0.0 0.0 
3.04 0.0 0.0 
3.05 0.0 0.0 
3.06 0.0 0.0 
3.07 0.0 0.0 
3.08 0.0 0.0 
3.09 0.0 0.0 
3.1 0.0 0.0 
3.11 0.0 0.0 
3.12 0.0 0.0 
3.13 0.0 0.0 
3.14 0.0 0.0 
3.15 0.0 0.0 
3.16 0.0 0.0 
3.17 0.0 0.0 
3.18 0.0 0.0 
3.19 0.0 0.0 
3.2 0.0 0.0 
3.21 0.0 0.0 
3.22 0.0 0.0 
3.23 0.0 0.0 
3.24 0.0 0.0 
3.25 0.0 0.0 
3.26 0.0 0.0 
3.27 0.0 0.0 
3.28 0.0 0.0 
3.29 0.0 0.0 
3.3 0.0 0.0 
3.31 0.0 0.0 
3.32 0.0 0.0 
3.33 0.0 0.0 
3.34 0.0 0.0 
3.35 0.0 0.0 
3.36 0.0 0.0 
3.37 0.0 0.0 
3.38 0.0 0.0 
3.39 0.0 0.0 
3.4 0.0 0.0 
3.41 0.0 0.0 
3.42 0.0 0.0 
3.43 0.0 0.0 
3.44 0.0 0.0 
3.45 0.0 0.0 
3.46 0.0 0.0 
3.47 0.0 0.0 
3.48 0.0 0.0 
3.49 0.0 0.0 
3.5 0.0 0.0 
3.51 0.0 0.0 
3.52 0.0 0.0 
3.53 0.0 0.0 
3.54 0.0 0.0 
3.55 0.0 0.0 
3.56 0.0 0.0 
3.57 0.0 0.0 
3.58 0.0 0.0 
3.59 0.0 0.0 
3.6 0.0 0.0 
3.61 0.0 0.0 
3.62 0.0 0.0 
3.63 0.0 0.0 
3.64 0.0 0.0 
3.65 0.0 0.0 
3.66 0.0 0.0 
3.67 0.0 0.0 
3.68 0.0 0.0 
3.69 0.0 0.0 
3.7 0.0 0.0 
3.71 0.0 0.0 
3.72 0.0 0.0 
3.73 0.0 0.0 
3.74 0.0 0.0 
3.75 0.0 0.0 
3.76 0.0 0.0 
3.77 0.0 0.0 
3.78 0.0 0.0 
3.79 0.0 0.0 
3.8 0.0 0.0 
3.81 0.0 0.0 
3.82 0.0 0.0 
3.83 0.0 0.0 
3.84 0.0 0.0 
3.85 0.0 0.0 
3.86 0.0 0.0 
3.87 0.0 0.0 
3.88 0.0 0.0 
3.89 0.0 0.0 
3.9 0.0 0.0 
3.91 0.0 0.0 
3.92 0.0 0.0 
3.93 0.0 0.0 
3.94 0.0 0.0 
3.95 0.0 0.0 
3.96 0.0 0.0 
3.97 0.0 0.0 
3.98 0.0 0.0 
3.99 0.0 0.0 
4.0 0.0 0.0 
4.01 0.0 0.0 
4.02 0.0 0.0 
4.03 0.0 0.0 
4.04 0.0 0.0 
4.05 0.0 0.0 
4.06 0.0 0.0 
4.07 0.0 0.0 
4.08 0.0 0.0 
4.09 0.0 0.0 
4.1 0.0 0.0 
4.11 0.0 0.0 
4.12 0.0 0.0 
4.13 0.0 0.0 
4.14 0.0 0.0 
4.15 0.0 0.0 
4.16 0.0 0.0 
4.17 0.0 0.0 
4.18 0.0 0.0 
4.19 0.0 0.0 
4.2 0.0 0.0 
4.21 0.0 0.0 
4.22 0.0 0.0 
4.23 0.0 0.0 
4.24 0.0 0.0 
4.25 0.0 0.0 
4.26 0.0 0.0 
4.27 0.0 0.0 
4.28 0.0 0.0 
4.29 0.0 0.0 
4.3 0.0 0.0 
4.31 0.0 0.0 
4.32 0.0 0.0 
4.33 0.0 0.0 
4.34 0.0 0.0 
4.35 0.0 0.0 
4.36 0.0 0.0 
4.37 0.0 0.0 
4.38 0.0 0.0 
4.39 0.0 0.0 
4.4 0.0 0.0 
4.41 0.0 0.0 
4.42 0.0 0.0 
4.43 0.0 0.0 
4.44 0.0 0.0 
4.45 0.0 0.0 
4.46 0.0 0.0 
4.47 0.0 0.0 
4.48 0.0 0.0 
4.49 0.0 0.0 
4.5 0.0 0.0 
4.51 0.0 0.0 
4.52 0.0 0.0 
4.53 0.0 0.0 
4.54 0.0 0.0 
4.55 0.0 0.0 
4.56 0.0 0.0 
4.57 0.0 0.0 
4.58 0.0 0.0 
4.59 0.0 0.0 
4.6 0.0 0.0 
4.61 0.0 0.0 
4.62 0.0 0.0 
4.63 0.0 0.0 
4.64 0.0 0.0 
4.65 0.0 0.0 
4.66 0.0 0.0 
4.67 0.0 0.0 
4.68 0.0 0.0 
4.69 0.0 0.0 
4.7 0.0 0.0 
4.71 0.0 0.0 
4.72 0.0 0.0 
4.73 0.0 0.0 
4.74 0.0 0.0 
4.75 0.0 0.0 
4.76 0.0 0.0 
4.77 0.0 0.0 
4.78 0.0 0.0 
4.79 0.0 0.0 
4.8 0.0 0.0 
4.81 0.0 0.0 
4.82 0.0 0.0 
4.83 0.0 0.0 
4.84 0.0 0.0 
4.85 0.0 0.0 
4.86 0.0 0.0 
4.87 0.0 0.0 
4.88 0.0 0.0 
4.89 0.0 0.0 
4.9 0.0 0.0 
4.91 0.0 0.0 
4.92 0.0 0.0 
4.93 0.0 0.0 
4.94 0.0 0.0 
4.95 0.0 0.0 
4.96 0.0 0.0 
4.97 0.0 0.0 
4.98 0.0 0.0 
4.99 0.0 0.0 
5.0 0.0 0.0 
5.01 0.0 0.0 
5.02 0.0 0.0 
5.03 0.0 0.0 
5.04 0.0 0.0 
5.05 0.0 0.0 
5.06 0.0 0.0 
5.07 0.0 0.0 
5.08 0.0 0.0 
5.09 0.0 0.0 
5.1 0.0 0.0 
5.11 0.0 0.0 
5.12 0.0 0.0 
5.13 0.0 0.0 
5.14 0.0 0.0 
5.15 0.0 0.0 
5.16 0.0 0.0 
5.17 0.0 0.0 
5.18 0.0 0.0 
5.19 0.0 0.0 
5.2 0.0 0.0 
5.21 0.0 0.0 
5.22 0.0 0.0 
5.23 0.0 0.0 
5.24 0.0 0.0 
5.25 0.0 0.0 
5.26 0.0 0.0 
5.27 0.0 0.0 
5.28 0.0 0.0 
5.29 0.0 0.0 
5.3 0.0 0.0 
5.31 0.0 0.0 
5.32 0.0 0.0 
5.33 0.0 0.0 
5.34 0.0 0.0 
5.35 0.0 0.0 
5.36 0.0 0.0 
5.37 0.0 0.0 
5.38 0.0 0.0 
5.39 0.0 0.0 
5.4 0.0 0.0 
5.41 0.0 0.0 
5.42 0.0 0.0 
5.43 0.0 0.0 
5.44 0.0 0.0 
5.45 0.0 0.0 
5.46 0.0 0.0 
5.47 0.0 0.0 
5.48 0.0 0.0 
5.49 0.0 0.0 
5.5 0.0 0.0 
5.51 0.0 0.0 
5.52 0.0 0.0 
5.53 0.0 0.0 
5.54 0.0 0.0 
5.55 0.0 0.0 
5.56 0.0 0.0 
5.57 0.0 0.0 
5.58 0.0 0.0 
5.59 0.0 0.0 
5.6 0.0 0.0 
5.61 0.0 0.0 
5.62 0.0 0.0 
5.63 0.0 0.0 
5.64 0.0 0.0 
5.65 0.0 0.0 
5.66 0.0 0.0 
5.67 0.0 0.0 
5.68 0.0 0.0 
5.69 0.0 0.0 
5.7 0.0 0.0 
5.71 0.0 0.0 
5.72 0.0 0.0 
5.73 0.0 0.0 
5.74 0.0 0.0 
5.75 0.0 0.0 
5.76 0.0 0.0 
5.77 0.0 0.0 
5.78 0.0 0.0 
5.79 0.0 0.0 
5.8 0.0 0.0 
5.81 0.0 0.0 
5.82 0.0 0.0 
5.83 0.0 0.0 
5.84 0.0 0.0 
5.85 0.0 0.0 
5.86 0.0 0.0 
5.87 0.0 0.0 
5.88 0.0 0.0 
5.89 0.0 0.0 
5.9 0.0 0.0 
5.91 0.0 0.0 
5.92 0.0 0.0 
5.93 0.0 0.0 
5.94 0.0 0.0 
5.95 0.0 0.0 
5.96 0.0 0.0 
5.97 0.0 0.0 
5.98 0.0 0.0 
5.99 0.0 0.0 
6.0 0.0 0.0 
6.01 0.0 0.0 
# l= 1
0.0 0.0 0.0 
0.01 0.25843318766 0.15231016525 
0.02 0.51607361869 0.30384930936 
0.03 0.7721320838 0.45385067845 
0.04 1.0258264485 0.60155602729 
0.05 1.276385141 0.74621980911 
0.06 1.5230505812 0.8871132884 
0.07 1.7650825314 1.0235285519 
0.08 2.0017613506 1.1547823937 
0.09 2.2323911343 1.2802200501 
0.1 2.4563027223 1.3992187638 
0.11 2.6728565588 1.5111911533 
0.12 2.8814453893 1.6155883698 
0.13 3.0814967798 1.7119030213 
0.14 3.2724754457 1.7996718477 
0.15 3.4538853778 1.8784781302 
0.16 3.6252717554 1.9479538213 
0.17 3.7862226377 2.0077813841 
0.18 3.9363704244 2.0576953285 
0.19 4.0753930814 2.0974834391 
0.2 4.2030151233 2.1269876834 
0.21 4.319008354 2.1461048018 
0.22 4.4231923588 2.154786571 
0.23 4.5154347516 2.1530397454 
0.24 4.5956511754 2.1409256743 
0.25 4.6638050622 2.1185596011 
0.26 4.7199071513 2.0861096488 
0.27 4.7640147773 2.0437954988 
0.28 4.79623093 1.991886775 
0.29 4.8167030966 1.930701141 
0.3 4.8256218949 1.8606021259 
0.31 4.8232195065 1.7819966903 
0.32 4.8097679264 1.6953325567 
0.33 4.7855770393 1.601095318 
0.34 4.750992508 1.4998053002 
0.35 4.7063935854 1.3920143523 
0.36 4.6521906739 1.2783022844 
0.37 4.5888229011 1.159273375 
0.38 4.5167555156 1.0355526357 
0.39 4.4364771655 0.90778193806 
0.4 4.3484972032 0.77661621211 
0.41 4.2533428671 0.64271949284 
0.42 4.15155644 0.50676096759 
0.43 4.0436923883 0.36941102476 
0.44 3.9303144936 0.23133732702 
0.45 3.8119929939 0.093200932168 
0.46 3.6893017507 -0.044347514589 
0.47 3.5628154561 -0.18067149219 
0.48 3.4331069477 -0.31515212677 
0.49 3.3007444703 -0.44719174637 
0.5 3.1662890013 -0.57621729568 
0.51 3.030291925 -0.70168322778 
0.52 2.8932927659 -0.8230742762 
0.53 2.7558162973 -0.93990899334 
0.54 2.6183711814 -1.0517411944 
0.55 2.4814473895 -1.1581629629 
0.56 2.345514496 -1.2588064251 
0.57 2.2110200954 -1.3533453229 
0.58 2.0783878946 -1.4414969004 
0.59 1.9480166069 -1.5230227262 
0.6 1.8202786263 -1.5977297002 
0.61 1.6955185443 -1.6654711442 
0.62 1.5740532619 -1.7261459688 
0.63 1.4561697364 -1.7797004073 
0.64 1.3421255896 -1.8261264435 
0.65 1.2321487005 -1.865461353 
0.66 1.1264358411 -1.8977879668 
0.67 1.0251537168 -1.9232324687 
0.68 0.92843881126 -1.9419633078 
0.69 0.83639745027 -1.9541897149 
0.7 0.74910603376 -1.960159849 
0.71 0.66661202767 -1.9601583478 
0.72 0.58893450086 -1.9545040463 
0.73 0.51606499778 -1.9435473462 
0.74 0.44796850789 -1.9276673874 
0.75 0.38458445701 -1.9072687777 
0.76 0.32582819542 -1.8827784166 
0.77 0.27159227234 -1.8546419861 
0.78 0.22174791906 -1.8233202807 
0.79 0.17614663897 -1.7892853684 
0.8 0.13462189731 -1.7530165944 
0.81 0.096990903359 -1.7149964429 
0.82 0.06305647775 -1.6757062657 
0.83 0.032608997846 -1.6356218933 
0.84 0.0054284140961 -1.5952091381 
0.85 -0.018713669545 -1.5549192014 
0.86 -0.040051857925 -1.5151839976 
0.87 -0.058824776417 -1.4764114035 
0.88 -0.075272838661 -1.4389804463 
0.89 -0.08963597683 -1.4032364393 
0.9 -0.10215134092 -1.3694860765 
0.91 -0.11305097356 -1.3379924973 
0.92 -0.12255946688 -1.3089703315 
0.93 -0.13089160801 -1.2825807357 
0.94 -0.13825002008 -1.2589264339 
0.95 -0.14482280549 -1.2380467723 
0.96 -0.15078123466 -1.2199128903 
0.97 -0.15627841047 -1.2044252133 
0.98 -0.16144389097 -1.1914012565 
0.99 -0.16638419685 -1.1805776369 
1.0 -0.17117968351 -1.1716032357 
1.01 -0.17588230956 -1.1640345404 
1.02 -0.18051346442 -1.1573311688 
1.03 -0.18506318507 -1.1508543603 
1.04 -0.18948570949 -1.1438603774 
1.05 -0.19368812557 -1.1354222898 
1.06 -0.1975290009 -1.1244330244 
1.07 -0.20082449468 -1.1096713498 
1.08 -0.20336116776 -1.0898921685 
1.09 -0.2049150182 -1.0639782045 
1.1 -0.20528569868 -1.0311148826 
1.11 -0.2043161288 -0.99085451246 
1.12 -0.20190630942 -0.9431613668 
1.13 -0.19803199964 -0.88847700156 
1.14 -0.19276136377 -0.82772337393 
1.15 -0.18622366169 -0.7620919999 
1.16 -0.17860268822 -0.6929927214 
1.17 -0.17012807728 -0.62195298274 
1.18 -0.16103901784 -0.55041570632 
1.19 -0.15156932229 -0.47970090073 
1.2 -0.14194582477 -0.4110042669 
1.21 -0.13234946045 -0.34517561195 
1.22 -0.1229340418 -0.28289443571 
1.23 -0.11382657568 -0.22466509566 
1.24 -0.10510865367 -0.17073589057 
1.25 -0.096836834917 -0.12122954314 
1.26 -0.089049604166 -0.07617469693 
1.27 -0.081759211437 -0.035479002423 
1.28 -0.074965914197 0.00099708825517 
1.29 -0.06866216661 0.033427546396 
1.3 -0.062829989436 0.062020897173 
1.31 -0.05744882318 0.086989839339 
1.32 -0.052495237787 0.10855810614 
1.33 -0.047944349854 0.1269427522 
1.34 -0.043771503812 0.14235819126 
1.35 -0.039951404085 0.15501935757 
1.36 -0.036460876112 0.16512320778 
1.37 -0.033276478275 0.17286961508 
1.38 -0.030376208177 0.17844798523 
1.39 -0.027739623534 0.18203779415 
1.4 -0.025345880239 0.18382224274 
1.41 -0.023176918977 0.18396588676 
1.42 -0.021214347011 0.18263639873 
1.43 -0.019441032249 0.17999338753 
1.44 -0.017841243012 0.17618638361 
1.45 -0.016398764775 0.17136949304 
1.46 -0.015099960115 0.16567686304 
1.47 -0.01393046625 0.15924864645 
1.48 -0.01287767804 0.15221078875 
1.49 -0.01192942845 0.14468516661 
1.5 -0.011074076921 0.13678936046 
1.51 -0.01030159161 0.12862591353 
1.52 -0.0096013736686 0.12030273402 
1.53 -0.0089652764882 0.11190405871 
1.54 -0.0083842243195 0.10352283969 
1.55 -0.0078513959423 0.095229490698 
1.56 -0.0073595320523 0.087098295287 
1.57 -0.0069029293406 0.079187375597 
1.58 -0.0064760934217 0.071552033086 
1.59 -0.0060744264531 0.064237825021 
1.6 -0.0056940305383 0.057282102719 
1.61 -0.0053313882534 0.050717754914 
1.62 -0.0049839907417 0.044565811437 
1.63 -0.0046493523923 0.038846673144 
1.64 -0.0043261208621 0.033567120882 
1.65 -0.0040127640441 0.028735607245 
1.66 -0.0037088415045 0.02434702782 
1.67 -0.0034136644154 0.020398822114 
1.68 -0.0031274594556 0.016876507846 
1.69 -0.0028502396009 0.013767847652 
1.7 -0.0025826645824 0.01105149044 
1.71 -0.0023252790222 0.0087072420074 
1.72 -0.0020789624462 0.0067092571287 
1.73 -0.0018445961782 0.0050314543732 
1.74 -0.0016230959668 0.0036456092169 
1.75 -0.0014154653691 0.0025221203826 
1.76 -0.0012225092398 0.0016321357052 
1.77 -0.0010451267605 0.00094512137795 
1.78 -0.00088390438967 0.00043292353076 
1.79 -0.00073940890837 6.6764553585e-05 
1.8 -0.00061193831432 -0.00017991052864 
1.81 -0.00050151285168 -0.0003315078326 
1.82 -0.0004081005905 -0.00041242635157 
1.83 -0.00033099534909 -0.00044039781153 
1.84 -0.00026980681461 -0.00043728369637 
1.85 -0.00022299222317 -0.00041257414999 
1.86 -0.00018973348535 -0.00038476054847 
1.87 -0.00016774598983 -0.00035590211377 
1.88 -0.00016247574079 -0.00035199504415 
1.89 -0.00015727100614 -0.00034116588174 
1.9 -0.00011758701856 -0.00025432165684 
1.91 -4.7948237155e-05 -0.00010384458017 
1.92 4.5258555777e-06 9.7790766452e-06 
1.93 9.4435083295e-06 2.0404714681e-05 
1.94 7.2644506112e-07 1.5696395542e-06 
1.95 0.0 0.0 
1.96 0.0 0.0 
1.97 0.0 0.0 
1.98 0.0 0.0 
1.99 0.0 0.0 
2.0 0.0 0.0 
2.01 0.0 0.0 
2.02 0.0 0.0 
2.03 0.0 0.0 
2.04 0.0 0.0 
2.05 0.0 0.0 
2.06 0.0 0.0 
2.07 0.0 0.0 
2.08 0.0 0.0 
2.09 0.0 0.0 
2.1 0.0 0.0 
2.11 0.0 0.0 
2.12 0.0 0.0 
2.13 0.0 0.0 
2.14 0.0 0.0 
2.15 0.0 0.0 
2.16 0.0 0.0 
2.17 0.0 0.0 
2.18 0.0 0.0 
2.19 0.0 0.0 
2.2 0.0 0.0 
2.21 0.0 0.0 
2.22 0.0 0.0 
2.23 0.0 0.0 
2.24 0.0 0.0 
2.25 0.0 0.0 
2.26 0.0 0.0 
2.27 0.0 0.0 
2.28 0.0 0.0 
2.29 0.0 0.0 
2.3 0.0 0.0 
2.31 0.0 0.0 
2.32 0.0 0.0 
2.33 0.0 0.0 
2.34 0.0 0.0 
2.35 0.0 0.0 
2.36 0.0 0.0 
2.37 0.0 0.0 
2.38 0.0 0.0 
2.39 0.0 0.0 
2.4 0.0 0.0 
2.41 0.0 0.0 
2.42 0.0 0.0 
2.43 0.0 0.0 
2.44 0.0 0.0 
2.45 0.0 0.0 
2.46 0.0 0.0 
2.47 0.0 0.0 
2.48 0.0 0.0 
2.49 0.0 0.0 
2.5 0.0 0.0 
2.51 0.0 0.0 
2.52 0.0 0.0 
2.53 0.0 0.0 
2.54 0.0 0.0 
2.55 0.0 0.0 
2.56 0.0 0.0 
2.57 0.0 0.0 
2.58 0.0 0.0 
2.59 0.0 0.0 
2.6 0.0 0.0 
2.61 0.0 0.0 
2.62 0.0 0.0 
2.63 0.0 0.0 
2.64 0.0 0.0 
2.65 0.0 0.0 
2.66 0.0 0.0 
2.67 0.0 0.0 
2.68 0.0 0.0 
2.69 0.0 0.0 
2.7 0.0 0.0 
2.71 0.0 0.0 
2.72 0.0 0.0 
2.73 0.0 0.0 
2.74 0.0 0.0 
2.75 0.0 0.0 
2.76 0.0 0.0 
2.77 0.0 0.0 
2.78 0.0 0.0 
2.79 0.0 0.0 
2.8 0.0 0.0 
2.81 0.0 0.0 
2.82 0.0 0.0 
2.83 0.0 0.0 
2.84 0.0 0.0 
2.85 0.0 0.0 
2.86 0.0 0.0 
2.87 0.0 0.0 
2.88 0.0 0.0 
2.89 0.0 0.0 
2.9 0.0 0.0 
2.91 0.0 0.0 
2.92 0.0 0.0 
2.93 0.0 0.0 
2.94 0.0 0.0 
2.95 0.0 0.0 
2.96 0.0 0.0 
2.97 0.0 0.0 
2.98 0.0 0.0 
2.99 0.0 0.0 
3.0 0.0 0.0 
3.01 0.0 0.0 
3.02 0.0 0.0 
3.03 0.0 0.0 
3.04 0.0 0.0 
3.05 0.0 0.0 
3.06 0.0 0.0 
3.07 0.0 0.0 
3.08 0.0 0.0 
3.09 0.0 0.0 
3.1 0.0 0.0 
3.11 0.0 0.0 
3.12 0.0 0.0 
3.13 0.0 0.0 
3.14 0.0 0.0 
3.15 0.0 0.0 
3.16 0.0 0.0 
3.17 0.0 0.0 
3.18 0.0 0.0 
3.19 0.0 0.0 
3.2 0.0 0.0 
3.21 0.0 0.0 
3.22 0.0 0.0 
3.23 0.0 0.0 
3.24 0.0 0.0 
3.25 0.0 0.0 
3.26 0.0 0.0 
3.27 0.0 0.0 
3.28 0.0 0.0 
3.29 0.0 0.0 
3.3 0.0 0.0 
3.31 0.0 0.0 
3.32 0.0 0.0 
3.33 0.0 0.0 
3.34 0.0 0.0 
3.35 0.0 0.0 
3.36 0.0 0.0 
3.37 0.0 0.0 
3.38 0.0 0.0 
3.39 0.0 0.0 
3.4 0.0 0.0 
3.41 0.0 0.0 
3.42 0.0 0.0 
3.43 0.0 0.0 
3.44 0.0 0.0 
3.45 0.0 0.0 
3.46 0.0 0.0 
3.47 0.0 0.0 
3.48 0.0 0.0 
3.49 0.0 0.0 
3.5 0.0 0.0 
3.51 0.0 0.0 
3.52 0.0 0.0 
3.53 0.0 0.0 
3.54 0.0 0.0 
3.55 0.0 0.0 
3.56 0.0 0.0 
3.57 0.0 0.0 
3.58 0.0 0.0 
3.59 0.0 0.0 
3.6 0.0 0.0 
3.61 0.0 0.0 
3.62 0.0 0.0 
3.63 0.0 0.0 
3.64 0.0 0.0 
3.65 0.0 0.0 
3.66 0.0 0.0 
3.67 0.0 0.0 
3.68 0.0 0.0 
3.69 0.0 0.0 
3.7 0.0 0.0 
3.71 0.0 0.0 
3.72 0.0 0.0 
3.73 0.0 0.0 
3.74 0.0 0.0 
3.75 0.0 0.0 
3.76 0.0 0.0 
3.77 0.0 0.0 
3.78 0.0 0.0 
3.79 0.0 0.0 
3.8 0.0 0.0 
3.81 0.0 0.0 
3.82 0.0 0.0 
3.83 0.0 0.0 
3.84 0.0 0.0 
3.85 0.0 0.0 
3.86 0.0 0.0 
3.87 0.0 0.0 
3.88 0.0 0.0 
3.89 0.0 0.0 
3.9 0.0 0.0 
3.91 0.0 0.0 
3.92 0.0 0.0 
3.93 0.0 0.0 
3.94 0.0 0.0 
3.95 0.0 0.0 
3.96 0.0 0.0 
3.97 0.0 0.0 
3.98 0.0 0.0 
3.99 0.0 0.0 
4.0 0.0 0.0 
4.01 0.0 0.0 
4.02 0.0 0.0 
4.03 0.0 0.0 
4.04 0.0 0.0 
4.05 0.0 0.0 
4.06 0.0 0.0 
4.07 0.0 0.0 
4.08 0.0 0.0 
4.09 0.0 0.0 
4.1 0.0 0.0 
4.11 0.0 0.0 
4.12 0.0 0.0 
4.13 0.0 0.0 
4.14 0.0 0.0 
4.15 0.0 0.0 
4.16 0.0 0.0 
4.17 0.0 0.0 
4.18 0.0 0.0 
4.19 0.0 0.0 
4.2 0.0 0.0 
4.21 0.0 0.0 
4.22 0.0 0.0 
4.23 0.0 0.0 
4.24 0.0 0.0 
4.25 0.0 0.0 
4.26 0.0 0.0 
4.27 0.0 0.0 
4.28 0.0 0.0 
4.29 0.0 0.0 
4.3 0.0 0.0 
4.31 0.0 0.0 
4.32 0.0 0.0 
4.33 0.0 0.0 
4.34 0.0 0.0 
4.35 0.0 0.0 
4.36 0.0 0.0 
4.37 0.0 0.0 
4.38 0.0 0.0 
4.39 0.0 0.0 
4.4 0.0 0.0 
4.41 0.0 0.0 
4.42 0.0 0.0 
4.43 0.0 0.0 
4.44 0.0 0.0 
4.45 0.0 0.0 
4.46 0.0 0.0 
4.47 0.0 0.0 
4.48 0.0 0.0 
4.49 0.0 0.0 
4.5 0.0 0.0 
4.51 0.0 0.0 
4.52 0.0 0.0 
4.53 0.0 0.0 
4.54 0.0 0.0 
4.55 0.0 0.0 
4.56 0.0 0.0 
4.57 0.0 0.0 
4.58 0.0 0.0 
4.59 0.0 0.0 
4.6 0.0 0.0 
4.61 0.0 0.0 
4.62 0.0 0.0 
4.63 0.0 0.0 
4.64 0.0 0.0 
4.65 0.0 0.0 
4.66 0.0 0.0 
4.67 0.0 0.0 
4.68 0.0 0.0 
4.69 0.0 0.0 
4.7 0.0 0.0 
4.71 0.0 0.0 
4.72 0.0 0.0 
4.73 0.0 0.0 
4.74 0.0 0.0 
4.75 0.0 0.0 
4.76 0.0 0.0 
4.77 0.0 0.0 
4.78 0.0 0.0 
4.79 0.0 0.0 
4.8 0.0 0.0 
4.81 0.0 0.0 
4.82 0.0 0.0 
4.83 0.0 0.0 
4.84 0.0 0.0 
4.85 0.0 0.0 
4.86 0.0 0.0 
4.87 0.0 0.0 
4.88 0.0 0.0 
4.89 0.0 0.0 
4.9 0.0 0.0 
4.91 0.0 0.0 
4.92 0.0 0.0 
4.93 0.0 0.0 
4.94 0.0 0.0 
4.95 0.0 0.0 
4.96 0.0 0.0 
4.97 0.0 0.0 
4.98 0.0 0.0 
4.99 0.0 0.0 
5.0 0.0 0.0 
5.01 0.0 0.0 
5.02 0.0 0.0 
5.03 0.0 0.0 
5.04 0.0 0.0 
5.05 0.0 0.0 
5.06 0.0 0.0 
5.07 0.0 0.0 
5.08 0.0 0.0 
5.09 0.0 0.0 
5.1 0.0 0.0 
5.11 0.0 0.0 
5.12 0.0 0.0 
5.13 0.0 0.0 
5.14 0.0 0.0 
5.15 0.0 0.0 
5.16 0.0 0.0 
5.17 0.0 0.0 
5.18 0.0 0.0 
5.19 0.0 0.0 
5.2 0.0 0.0 
5.21 0.0 0.0 
5.22 0.0 0.0 
5.23 0.0 0.0 
5.24 0.0 0.0 
5.25 0.0 0.0 
5.26 0.0 0.0 
5.27 0.0 0.0 
5.28 0.0 0.0 
5.29 0.0 0.0 
5.3 0.0 0.0 
5.31 0.0 0.0 
5.32 0.0 0.0 
5.33 0.0 0.0 
5.34 0.0 0.0 
5.35 0.0 0.0 
5.36 0.0 0.0 
5.37 0.0 0.0 
5.38 0.0 0.0 
5.39 0.0 0.0 
5.4 0.0 0.0 
5.41 0.0 0.0 
5.42 0.0 0.0 
5.43 0.0 0.0 
5.44 0.0 0.0 
5.45 0.0 0.0 
5.46 0.0 0.0 
5.47 0.0 0.0 
5.48 0.0 0.0 
5.49 0.0 0.0 
5.5 0.0 0.0 
5.51 0.0 0.0 
5.52 0.0 0.0 
5.53 0.0 0.0 
5.54 0.0 0.0 
5.55 0.0 0.0 
5.56 0.0 0.0 
5.57 0.0 0.0 
5.58 0.0 0.0 
5.59 0.0 0.0 
5.6 0.0 0.0 
5.61 0.0 0.0 
5.62 0.0 0.0 
5.63 0.0 0.0 
5.64 0.0 0.0 
5.65 0.0 0.0 
5.66 0.0 0.0 
5.67 0.0 0.0 
5.68 0.0 0.0 
5.69 0.0 0.0 
5.7 0.0 0.0 
5.71 0.0 0.0 
5.72 0.0 0.0 
5.73 0.0 0.0 
5.74 0.0 0.0 
5.75 0.0 0.0 
5.76 0.0 0.0 
5.77 0.0 0.0 
5.78 0.0 0.0 
5.79 0.0 0.0 
5.8 0.0 0.0 
5.81 0.0 0.0 
5.82 0.0 0.0 
5.83 0.0 0.0 
5.84 0.0 0.0 
5.85 0.0 0.0 
5.86 0.0 0.0 
5.87 0.0 0.0 
5.88 0.0 0.0 
5.89 0.0 0.0 
5.9 0.0 0.0 
5.91 0.0 0.0 
5.92 0.0 0.0 
5.93 0.0 0.0 
5.94 0.0 0.0 
5.95 0.0 0.0 
5.96 0.0 0.0 
5.97 0.0 0.0 
5.98 0.0 0.0 
5.99 0.0 0.0 
6.0 0.0 0.0 
6.01 0.0 0.0 
# local
0.0 2.1094213704E-01
0.01 2.0953721144E-01
0.02 2.0514378487E-01
0.03 1.9778394372E-01
0.04 1.8747977436E-01
0.05 1.7424346211E-01
0.06 1.5808777049E-01
0.07 1.3902758734E-01
0.08 1.1708036229E-01
0.09 9.2266303322E-02
0.1 6.4608504475E-02
0.11 3.4133050187E-02
0.12 8.6911002706E-04
0.13 -3.5150972159E-02
0.14 -7.3891593978E-02
0.15 -1.1531381588E-01
0.16 -1.5937528920E-01
0.17 -2.0603019229E-01
0.18 -2.5522917576E-01
0.19 -3.0691931749E-01
0.2 -3.6104408999E-01
0.21 -4.1754333767E-01
0.22 -4.7635326833E-01
0.23 -5.3740645558E-01
0.24 -6.0063185555E-01
0.25 -6.6595483426E-01
0.26 -7.3329720962E-01
0.27 -8.0257730299E-01
0.28 -8.7371000594E-01
0.29 -9.4660685523E-01
0.3 -1.0211761195E+00
0.31 -1.0973228963E+00
0.32 -1.1749492196E+00
0.33 -1.2539541763E+00
0.34 -1.3342340227E+00
0.35 -1.4156823312E+00
0.36 -1.4981901095E+00
0.37 -1.5816459627E+00
0.38 -1.6659362383E+00
0.39 -1.7509451775E+00
0.4 -1.8365550848E+00
0.41 -1.9226464900E+00
0.42 -2.0090983183E+00
0.43 -2.0957880620E+00
0.44 -2.1825919560E+00
0.45 -2.2693851545E+00
0.46 -2.3560419090E+00
0.47 -2.4424357472E+00
0.48 -2.5284396513E+00
0.49 -2.6139262330E+00
0.5 -2.6987679100E+00
0.51 -2.7828370792E+00
0.52 -2.8660062791E+00
0.53 -2.9481483629E+00
0.54 -3.0291366442E+00
0.55 -3.1088450558E+00
0.56 -3.1871482929E+00
0.57 -3.2639219402E+00
0.58 -3.3390426159E+00
0.59 -3.4123880782E+00
0.6 -3.4838373440E+00
0.61 -3.5532708237E+00
0.62 -3.6205703652E+00
0.63 -3.6856194709E+00
0.64 -3.7483033369E+00
0.65 -3.8085089718E+00
0.66 -3.8661254721E+00
0.67 -3.9210441015E+00
0.68 -3.9731585289E+00
0.69 -4.0223651292E+00
0.7 -4.0685633768E+00
0.71 -4.1116561666E+00
0.72 -4.1515503259E+00
0.73 -4.1881571620E+00
0.74 -4.2213931001E+00
0.75 -4.2511805778E+00
0.76 -4.2774486900E+00
0.77 -4.3001341416E+00
0.78 -4.3191822053E+00
0.79 -4.3345477267E+00
0.8 -4.3461961553E+00
0.81 -4.3541045824E+00
0.82 -4.3582627604E+00
0.83 -4.3586740838E+00
0.84 -4.3553565077E+00
0.85 -4.3483433861E+00
0.86 -4.3376842161E+00
0.87 -4.3234452761E+00
0.88 -4.3057101537E+00
0.89 -4.2845801657E+00
0.9 -4.2601746749E+00
0.91 -4.2326313183E+00
0.92 -4.2021061630E+00
0.93 -4.1687738134E+00
0.94 -4.1328274935E+00
0.95 -4.0944791333E+00