#ONCVPSP  (Optimized Norm-Conservinng Vanderbilt PSeudopotential)
#fully-relativistic version 2.1.2, 09/16/2014
#D. R. Hamann, Phys. Rev. B 88, 085117 (2013)
# ATOM AND REFERENCE CONFIGURATION
# atsym  z    nc    nv    iexc   psfile
#  Au 79.00    10     4     3      psp8
#
#   n    l    f              energy (Ha)
#   n    l    f        l+1/2             l-1/2
#   1    0    2.00    -2.9616982E+03
#   2    0    2.00    -5.2219107E+02
#   2    1    6.00    -4.3344512E+02    -5.0084144E+02
#   3    0    2.00    -1.2322554E+02
#   3    1    6.00    -9.8748550E+01    -1.1361774E+02
#   3    2   10.00    -7.9566152E+01    -8.2763950E+01
#   4    0    2.00    -2.6720847E+01
#   4    1    6.00    -1.9051239E+01    -2.2626306E+01
#   4    2   10.00    -1.1678958E+01    -1.2344672E+01
#   4    3   14.00    -2.9279761E+00    -3.0681928E+00
#   5    0    2.00    -3.9879173E+00
#   5    1    6.00    -2.0422667E+00    -2.6552140E+00
#   5    2   10.00    -2.4062491E-01    -2.9713123E-01
#   6    0    1.00    -2.2441964E-01
#
# PSEUDOPOTENTIAL AND OPTIMIZATION
# lmax
#    3
#
#   l,   rc,     ep,   ncon, nbas, qcut
#   0    2.20    0.00    4    7    6.00
#   1    2.50    0.00    4    7    5.50
#   2    2.40    0.00    4    8    6.00
#   3    3.00    0.30    4    8    4.50
#
# LOCAL POTENTIAL
# lloc, lpopt,  rc(5),   dvloc0
#    4    3      2.20       0.00
#
# VANDERBILT-KLEINMAN-BYLANDER PROJECTORs
# l, nproj, debl
#    0    2    1.0000
#    1    2    2.5000
#    2    2    1.0000
#    3    2    1.5000
#
Au_ONCVPSP_LDA
#color
Silver
#radii of balls and covalent bonds
1.0  2.7
# Nlcc flag
0
# Atomic number
79
# Atomic mass
196.96655
# Number of valence electrons
19
# Gaussian core charge parameter rc
1.
# Number of potentials
5
# l-value for state which is local, then type of potential format
4   2
# Local potential radius
3.2
# Non-local potential radius
3.2
# number of points in radial grid
500
# VANDERBILT-KLEINMAN-BYLANDER PROJECTORs
# l, nproj
0   2  -3.3159504286126E+00 -1.7576972108589E-01
1   3  -3.1078103053063E+00 -7.7004777306476E-01 -5.3831865765451E-04
2   3  -2.9339898684610E+00 -9.7820234048150E-01 -1.8104204868117E-04
3   3  -1.3018617516070E+00 -2.4937898751266E-01 -8.0448501133195E-05
# radial grid, potential, and reference state for l=0
#l=0                        -3.3159504286126E+00 -1.7576972108589E-01
0.0000000000000E+00 -0.0000000000000E+00  0.0000000000000E+00
1.0000000000000E-02 -3.2773588698319E-02  2.0057561557528E-02
2.0000000000000E-02 -6.5519718663775E-02  4.0100915430133E-02
3.0000000000000E-02 -9.8210971605319E-02  6.0115713322438E-02
4.0000000000000E-02 -1.3082000983588E-01  8.0087328886417E-02
5.0000000000000E-02 -1.6331961604020E-01  1.0000072482912E-01
6.0000000000000E-02 -1.9568273257268E-01  1.1984032551570E-01
7.0000000000000E-02 -2.2788250021237E-01  1.3958989596829E-01
8.0000000000000E-02 -2.5989229630376E-01  1.5923242811960E-01
9.0000000000000E-02 -2.9168577221448E-01  1.7875003513602E-01
1.0000000000000E-01 -3.2323689004377E-01  1.9812385457379E-01
1.1000000000000E-01 -3.5451995851658E-01  2.1733396108438E-01
1.2000000000000E-01 -3.8550966800262E-01  2.3635928932566E-01
1.3000000000000E-01 -4.1618112459958E-01  2.5517756768348E-01
1.4000000000000E-01 -4.4650988322911E-01  2.7376526333490E-01
1.5000000000000E-01 -4.7647197968282E-01  2.9209753914978E-01
1.6000000000000E-01 -5.0604396158252E-01  3.1014822281866E-01
1.7000000000000E-01 -5.3520291818518E-01  3.2788978858683E-01
1.8000000000000E-01 -5.6392650901353E-01  3.4529335183603E-01
1.9000000000000E-01 -5.9219299126644E-01  3.6232867674774E-01
2.0000000000000E-01 -6.1998124593613E-01  3.7896419719734E-01
2.1000000000000E-01 -6.4727080265916E-01  3.9516705091631E-01
2.2000000000000E-01 -6.7404186320743E-01  4.1090312694031E-01
2.3000000000000E-01 -7.0027532365210E-01  4.2613712628285E-01
2.4000000000000E-01 -7.2595279511319E-01  4.4083263565516E-01
2.5000000000000E-01 -7.5105662310443E-01  4.5495221398370E-01
2.6000000000000E-01 -7.7556990552111E-01  4.6845749168695E-01
2.7000000000000E-01 -7.9947650910059E-01  4.8130928195186E-01
2.8000000000000E-01 -8.2276108446482E-01  4.9346770381494E-01
2.9000000000000E-01 -8.4540907974182E-01  5.0489231669485E-01
3.0000000000000E-01 -8.6740675270454E-01  5.1554226564994E-01
3.1000000000000E-01 -8.8874118144968E-01  5.2537643683219E-01
3.2000000000000E-01 -9.0940027360294E-01  5.3435362235650E-01
3.3000000000000E-01 -9.2937277395768E-01  5.4243269255522E-01
3.4000000000000E-01 -9.4864827115446E-01  5.4957278151267E-01
3.5000000000000E-01 -9.6721720201374E-01  5.5573346977632E-01
3.6000000000000E-01 -9.8507085556517E-01  5.6087498674832E-01
3.7000000000000E-01 -1.0022013745870E+00  5.6495840394562E-01
3.8000000000000E-01 -1.0186017565822E+00  5.6794584469456E-01
3.9000000000000E-01 -1.0342658530126E+00  5.6980069234643E-01
4.0000000000000E-01 -1.0491883671583E+00  5.7048779888208E-01
4.1000000000000E-01 -1.0633648508121E+00  5.6997369835373E-01
4.2000000000000E-01 -1.0767916996284E+00  5.6822681966512E-01
4.3000000000000E-01 -1.0894661472150E+00  5.6521769861477E-01
4.4000000000000E-01 -1.1013862580002E+00  5.6091918817799E-01
4.5000000000000E-01 -1.1125509189098E+00  5.5530666597638E-01
4.6000000000000E-01 -1.1229598298905E+00  5.4835823782673E-01
4.7000000000000E-01 -1.1326134933166E+00  5.4005493617639E-01
4.8000000000000E-01 -1.1415132023534E+00  5.3038091121026E-01
4.9000000000000E-01 -1.1496610284899E+00  5.1932360976123E-01
5.0000000000000E-01 -1.1570598072335E+00  5.0687397504864E-01
5.1000000000000E-01 -1.1637131239300E+00  4.9302659283859E-01
5.2000000000000E-01 -1.1696252989099E+00  4.7777983867406E-01
5.3000000000000E-01 -1.1748013693113E+00  4.6113606691811E-01
5.4000000000000E-01 -1.1792470735309E+00  4.4310170310996E-01
5.5000000000000E-01 -1.1829688331345E+00  4.2368737616875E-01
5.6000000000000E-01 -1.1859737323230E+00  4.0290805110729E-01
5.7000000000000E-01 -1.1882695022624E+00  3.8078307051196E-01
5.8000000000000E-01 -1.1898644960891E+00  3.5733629784302E-01
5.9000000000000E-01 -1.1907676738910E+00  3.3259611278824E-01
6.0000000000000E-01 -1.1909885769247E+00  3.0659550817944E-01
6.1000000000000E-01 -1.1905373080660E+00  2.7937209563257E-01
6.2000000000000E-01 -1.1894245130466E+00  2.5096809355775E-01
6.3000000000000E-01 -1.1876613492803E+00  2.2143038266689E-01
6.4000000000000E-01 -1.1852594729969E+00  1.9081041107313E-01
6.5000000000000E-01 -1.1822310129318E+00  1.5916417786669E-01
6.6000000000000E-01 -1.1785885411242E+00  1.2655219174264E-01
6.7000000000000E-01 -1.1743450576184E+00  9.3039350935523E-02
6.8000000000000E-01 -1.1695139673607E+00  5.8694851581273E-02
6.9000000000000E-01 -1.1641090478692E+00  2.3592085212633E-02
7.0000000000000E-01 -1.1581444308695E+00 -1.2191517661026E-02
7.1000000000000E-01 -1.1516345797520E+00 -4.8574644667333E-02
7.2000000000000E-01 -1.1445942645421E+00 -8.5472274867281E-02
7.3000000000000E-01 -1.1370385413979E+00 -1.2279586642123E-01
7.4000000000000E-01 -1.1289827197164E+00 -1.6045358217173E-01
7.5000000000000E-01 -1.1204423456555E+00 -1.9835051368897E-01
7.6000000000000E-01 -1.1114331787038E+00 -2.3638892375917E-01
7.7000000000000E-01 -1.1019711675441E+00 -2.7446850873195E-01
7.8000000000000E-01 -1.0920724271111E+00 -3.1248667463048E-01
7.9000000000000E-01 -1.0817532159185E+00 -3.5033882747102E-01
8.0000000000000E-01 -1.0710299136855E+00 -3.8791867686583E-01
8.1000000000000E-01 -1.0599189992872E+00 -4.2511855192563E-01
8.2000000000000E-01 -1.0484370290566E+00 -4.6182972842474E-01
8.3000000000000E-01 -1.0366006154599E+00 -4.9794276614281E-01
8.4000000000000E-01 -1.0244264061668E+00 -5.3334785525045E-01
8.5000000000000E-01 -1.0119310635378E+00 -5.6793517056209E-01
8.6000000000000E-01 -9.9913124454616E-01 -6.0159523243569E-01
8.7000000000000E-01 -9.8604358115436E-01 -6.3421927305639E-01
8.8000000000000E-01 -9.7268466116231E-01 -6.6569960679661E-01
8.9000000000000E-01 -9.5907100954494E-01 -6.9593000330046E-01
9.0000000000000E-01 -9.4521907029623E-01 -7.2480606189269E-01
9.1000000000000E-01 -9.3114518879655E-01 -7.5222558586420E-01
9.2000000000000E-01 -9.1686559472010E-01 -7.7808895513661E-01
9.3000000000000E-01 -9.0239638549932E-01 -8.0229949576013E-01
9.4000000000000E-01 -8.8775351036267E-01 -8.2476384465444E-01
9.5000000000000E-01 -8.7295275496238E-01 -8.4539230796500E-01
9.6000000000000E-01 -8.5800972660792E-01 -8.6409921138302E-01
9.7000000000000E-01 -8.4293984556903E-01 -8.8080316082565E-01
9.8000000000000E-01 -8.2775832478377E-01 -8.9542746316351E-01
9.9000000000000E-01 -8.1248014376379E-01 -9.0790065088410E-01
1.0000000000000E+00 -7.9712005806733E-01 -9.1815646811195E-01
1.0100000000000E+00 -7.8169257933421E-01 -9.2613427824947E-01
1.0200000000000E+00 -7.6621196421718E-01 -9.3177933695941E-01
1.0300000000000E+00 -7.5069220652238E-01 -9.3504300510482E-01
1.0400000000000E+00 -7.3514704149775E-01 -9.3588274961374E-01
1.0500000000000E+00 -7.1958987524216E-01 -9.3426337144223E-01
1.0600000000000E+00 -7.0403383924177E-01 -9.3015617664528E-01
1.0700000000000E+00 -6.8849176263908E-01 -9.2353946623989E-01
1.0800000000000E+00 -6.7297617173221E-01 -9.1439857145861E-01
1.0900000000000E+00 -6.5749928777603E-01 -9.0272590796006E-01
1.1000000000000E+00 -6.4207295690970E-01 -8.8852215015743E-01
1.1100000000000E+00 -6.2670871968927E-01 -8.7179504680569E-01
1.1200000000000E+00 -6.1141778233939E-01 -8.5255986907795E-01
1.1300000000000E+00 -5.9621105004724E-01 -8.3083884323253E-01
1.1400000000000E+00 -5.8109899739798E-01 -8.0666318017800E-01
1.1500000000000E+00 -5.6609178574524E-01 -7.8007106485316E-01
1.1600000000000E+00 -5.5119923612050E-01 -7.5110802401115E-01
1.1700000000000E+00 -5.3643083089898E-01 -7.1982684545055E-01
1.1800000000000E+00 -5.2179562066658E-01 -6.8628875143976E-01
1.1900000000000E+00 -5.0730233359538E-01 -6.5056161038867E-01
1.2000000000000E+00 -4.9295937524349E-01 -6.1271992229971E-01
1.2100000000000E+00 -4.7877472180104E-01 -5.7284599937255E-01
1.2200000000000E+00 -4.6475598877080E-01 -5.3102872712303E-01
1.2300000000000E+00 -4.5091047221173E-01 -4.8736301566560E-01
1.2400000000000E+00 -4.3724507879327E-01 -4.4195039220735E-01
1.2500000000000E+00 -4.2376630963366E-01 -3.9489858059341E-01
1.2600000000000E+00 -4.1048036059483E-01 -3.4632051416163E-01
1.2700000000000E+00 -3.9739305494125E-01 -2.9633474012898E-01
1.2800000000000E+00 -3.8450979852084E-01 -2.4506486464386E-01
1.2900000000000E+00 -3.7183570760804E-01 -1.9263892419505E-01
1.3000000000000E+00 -3.5937551954651E-01 -1.3918947396711E-01
1.3100000000000E+00 -3.4713357413369E-01 -8.4852534227972E-02
1.3200000000000E+00 -3.3511393690118E-01 -2.9767964975897E-02
1.3300000000000E+00 -3.2332026956903E-01  2.5921578454740E-02
1.3400000000000E+00 -3.1175588434634E-01  8.2071456425156E-02
1.3500000000000E+00 -3.0042382940351E-01  1.3853346437464E-01
1.3600000000000E+00 -2.8932671687759E-01  1.9515970111335E-01
1.3700000000000E+00 -2.7846688943913E-01  2.5180028571569E-01
1.3800000000000E+00 -2.6784637411045E-01  3.0830374295137E-01
1.3900000000000E+00 -2.5746681793994E-01  3.6452115526360E-01
1.4000000000000E+00 -2.4732962958722E-01  4.2030067818214E-01
1.4100000000000E+00 -2.3743584646302E-01  4.7549415229789E-01
1.4200000000000E+00 -2.2778623088907E-01  5.2995414896209E-01
1.4300000000000E+00 -2.1838126357428E-01  5.8353287750019E-01
1.4400000000000E+00 -2.0922109179099E-01  6.3608989922495E-01
1.4500000000000E+00 -2.0030563380978E-01  6.8748130075641E-01
1.4600000000000E+00 -1.9163448255426E-01  7.3757285585670E-01
1.4700000000000E+00 -1.8320699490697E-01  7.8623017735551E-01
1.4800000000000E+00 -1.7502225121423E-01  8.3332391297206E-01
1.4900000000000E+00 -1.6707908103955E-01  8.7873253165529E-01
1.5000000000000E+00 -1.5937606764359E-01  9.2233294462298E-01
1.5100000000000E+00 -1.5191155715989E-01  9.6401773215962E-01
1.5200000000000E+00 -1.4468365612864E-01  1.0036738908567E+00
1.5300000000000E+00 -1.3769026346275E-01  1.0412065487742E+00
1.5400000000000E+00 -1.3092904629577E-01  1.0765180055288E+00
1.5500000000000E+00 -1.2439747904887E-01  1.1095244032075E+00
1.5600000000000E+00 -1.1809283312489E-01  1.1401458166940E+00
1.5700000000000E+00 -1.1201218196237E-01  1.1683105632918E+00
1.5800000000000E+00 -1.0615244482532E-01  1.1939575937526E+00
1.5900000000000E+00 -1.0051032015355E-01  1.2170286337556E+00
1.6000000000000E+00 -9.5082417364548E-02  1.2374821366858E+00
1.6100000000000E+00 -8.9865088768173E-02  1.2552744460730E+00
1.6200000000000E+00 -8.4854674451031E-02  1.2703837271837E+00
1.6300000000000E+00 -8.0047212353981E-02  1.2827820421290E+00
1.6400000000000E+00 -7.5438811777193E-02  1.2924671087978E+00
1.6500000000000E+00 -7.1025230782897E-02  1.2994276320977E+00
1.6600000000000E+00 -6.6802384329080E-02  1.3036803929337E+00
1.6700000000000E+00 -6.2765787681128E-02  1.3052314375735E+00
1.6800000000000E+00 -5.8911195563361E-02  1.3041158190477E+00
1.6900000000000E+00 -5.5233920147390E-02  1.3003573634728E+00
1.7000000000000E+00 -5.1729587241364E-02  1.2940083303442E+00
1.7100000000000E+00 -4.8393348522403E-02  1.2851104760859E+00
1.7200000000000E+00 -4.5220728693490E-02  1.2737319601461E+00
1.7300000000000E+00 -4.2206764951056E-02  1.2599322994908E+00
1.7400000000000E+00 -3.9346904266110E-02  1.2437940585289E+00
1.7500000000000E+00 -3.6636119453175E-02  1.2253939779335E+00
1.7600000000000E+00 -3.4069797677675E-02  1.2048274234389E+00
1.7700000000000E+00 -3.1642902190803E-02  1.1821873873440E+00
1.7800000000000E+00 -2.9350771982241E-02  1.1575804350244E+00
1.7900000000000E+00 -2.7188420591184E-02  1.1311143144690E+00
1.8000000000000E+00 -2.5151143808312E-02  1.1029053260099E+00
1.8100000000000E+00 -2.3234069957426E-02  1.0730738566985E+00
1.8200000000000E+00 -2.1432450511020E-02  1.0417447542892E+00
1.8300000000000E+00 -1.9741596176186E-02  1.0090482289725E+00
1.8400000000000E+00 -1.8156708848733E-02  9.7511687608736E-01
1.8500000000000E+00 -1.6673349117577E-02  9.4008719546626E-01
1.8600000000000E+00 -1.5286663774966E-02  9.0409914847503E-01
1.8700000000000E+00 -1.3992504817717E-02  8.6729158965909E-01
1.8800000000000E+00 -1.2786025927411E-02  8.2981111794155E-01
1.8900000000000E+00 -1.1663278824837E-02  7.9179656787417E-01
1.9000000000000E+00 -1.0619696403620E-02  7.5339647612052E-01
1.9100000000000E+00 -9.6513080841428E-03  7.1475093746518E-01
1.9200000000000E+00 -8.7539774440104E-03  6.7600468331539E-01
1.9300000000000E+00 -7.9236731316310E-03  6.3730021784677E-01
1.9400000000000E+00 -7.1567677047918E-03  5.9877247362900E-01
1.9500000000000E+00 -6.4491464218716E-03  5.6056779879768E-01
1.9600000000000E+00 -5.7976509851602E-03  5.2280824445275E-01
1.9700000000000E+00 -5.1983631023983E-03  4.8563675859513E-01
1.9800000000000E+00 -4.6482584756863E-03  4.4916927121740E-01
1.9900000000000E+00 -4.1439733470358E-03  4.1353236064291E-01
2.0000000000000E+00 -3.6823686034912E-03  3.7884396315126E-01
2.0100000000000E+00 -3.2607752937826E-03  3.4520554055384E-01
2.0200000000000E+00 -2.8759137482166E-03  3.1273965545979E-01
2.0300000000000E+00 -2.5256611672342E-03  2.8152447798357E-01
2.0400000000000E+00 -2.2071424572921E-03  2.5166651498781E-01
2.0500000000000E+00 -1.9181936591512E-03  2.2324209236902E-01
2.0600000000000E+00 -1.6567007580151E-03  1.9632467130626E-01
2.0700000000000E+00 -1.4202987467287E-03  1.7099692686208E-01
2.0800000000000E+00 -1.2075678326344E-03  1.4729896850231E-01
2.0900000000000E+00 -1.0163547384112E-03  1.2530246180703E-01
2.1000000000000E+00 -8.4538127982699E-04  1.0503744058570E-01
2.1100000000000E+00 -6.9325189628971E-04  8.6538173993654E-02
2.1200000000000E+00 -5.5843190554871E-04  6.9843926147812E-02
2.1300000000000E+00 -4.4026480459097E-04  5.4950610327272E-02
2.1400000000000E+00 -3.3741812840781E-04  4.1885304540740E-02
2.1500000000000E+00 -2.4935430593062E-04  3.0634866753351E-02
2.1600000000000E+00 -1.7552352997293E-04  2.1185309060375E-02
2.1700000000000E+00 -1.1509421183146E-04  1.3534953404633E-02
2.1800000000000E+00 -6.8187070614035E-05  7.6340539503783E-03
2.1900000000000E+00 -3.6139389377086E-05  3.6354287552932E-03
2.2000000000000E+00 -1.6939252388161E-05  1.2914791114466E-03
2.2100000000000E+00 -6.5720658010475E-06  1.1510888395101E-04
2.2200000000000E+00 -1.0815248138724E-06 -3.1095589634924E-04
2.2300000000000E+00  4.0270508661187E-07 -2.1875520495146E-04
2.2400000000000E+00  2.0044533367165E-07 -2.5862174975138E-06
2.2500000000000E+00  4.1085748574487E-07 -5.3010304563063E-06
2.2600000000000E+00  1.5436204275875E-07 -1.9916343704394E-06
2.2700000000000E+00  0.0000000000000E+00  0.0000000000000E+00
2.2800000000000E+00  0.0000000000000E+00  0.0000000000000E+00
2.2900000000000E+00  0.0000000000000E+00  0.0000000000000E+00
2.3000000000000E+00  0.0000000000000E+00  0.0000000000000E+00
2.3100000000000E+00  0.0000000000000E+00  0.0000000000000E+00
2.3200000000000E+00  0.0000000000000E+00  0.0000000000000E+00
2.3300000000000E+00  0.0000000000000E+00  0.0000000000000E+00
2.3400000000000E+00  0.0000000000000E+00  0.0000000000000E+00
2.3500000000000E+00  0.0000000000000E+00  0.0000000000000E+00
2.3600000000000E+00  0.0000000000000E+00  0.0000000000000E+00
2.3700000000000E+00  0.0000000000000E+00  0.0000000000000E+00
2.3800000000000E+00  0.0000000000000E+00  0.0000000000000E+00
2.3900000000000E+00  0.0000000000000E+00  0.0000000000000E+00
2.4000000000000E+00  0.0000000000000E+00  0.0000000000000E+00
2.4100000000000E+00  0.0000000000000E+00  0.0000000000000E+00
2.4200000000000E+00  0.0000000000000E+00  0.0000000000000E+00
2.4300000000000E+00  0.0000000000000E+00  0.0000000000000E+00
2.4400000000000E+00  0.0000000000000E+00  0.0000000000000E+00
2.4500000000000E+00  0.0000000000000E+00  0.0000000000000E+00
2.4600000000000E+00  0.0000000000000E+00  0.0000000000000E+00
2.4700000000000E+00  0.0000000000000E+00  0.0000000000000E+00
2.4800000000000E+00  0.0000000000000E+00  0.0000000000000E+00
2.4900000000000E+00  0.0000000000000E+00  0.0000000000000E+00
2.5000000000000E+00  0.0000000000000E+00  0.0000000000000E+00
2.5100000000000E+00  0.0000000000000E+00  0.0000000000000E+00
2.5200000000000E+00  0.0000000000000E+00  0.0000000000000E+00
2.5300000000000E+00  0.0000000000000E+00  0.0000000000000E+00
2.5400000000000E+00  0.0000000000000E+00  0.0000000000000E+00
2.5500000000000E+00  0.0000000000000E+00  0.0000000000000E+00
2.5600000000000E+00  0.0000000000000E+00  0.0000000000000E+00
2.5700000000000E+00  0.0000000000000E+00  0.0000000000000E+00
2.5800000000000E+00  0.0000000000000E+00  0.0000000000000E+00
2.5900000000000E+00  0.0000000000000E+00  0.0000000000000E+00
2.6000000000000E+00  0.0000000000000E+00  0.0000000000000E+00
2.6100000000000E+00  0.0000000000000E+00  0.0000000000000E+00
2.6200000000000E+00  0.0000000000000E+00  0.0000000000000E+00
2.6300000000000E+00  0.0000000000000E+00  0.0000000000000E+00
2.6400000000000E+00  0.0000000000000E+00  0.0000000000000E+00
2.6500000000000E+00  0.0000000000000E+00  0.0000000000000E+00
2.6600000000000E+00  0.0000000000000E+00  0.0000000000000E+00
2.6700000000000E+00  0.0000000000000E+00  0.0000000000000E+00
2.6800000000000E+00  0.0000000000000E+00  0.0000000000000E+00
2.6900000000000E+00  0.0000000000000E+00  0.0000000000000E+00
2.7000000000000E+00  0.0000000000000E+00  0.0000000000000E+00
2.7100000000000E+00  0.0000000000000E+00  0.0000000000000E+00
2.7200000000000E+00  0.0000000000000E+00  0.0000000000000E+00
2.7300000000000E+00  0.0000000000000E+00  0.0000000000000E+00
2.7400000000000E+00  0.0000000000000E+00  0.0000000000000E+00
2.7500000000000E+00  0.0000000000000E+00  0.0000000000000E+00
2.7600000000000E+00  0.0000000000000E+00  0.0000000000000E+00
2.7700000000000E+00  0.0000000000000E+00  0.0000000000000E+00
2.7800000000000E+00  0.0000000000000E+00  0.0000000000000E+00
2.7900000000000E+00  0.0000000000000E+00  0.0000000000000E+00
2.8000000000000E+00  0.0000000000000E+00  0.0000000000000E+00
2.8100000000000E+00  0.0000000000000E+00  0.0000000000000E+00
2.8200000000000E+00  0.0000000000000E+00  0.0000000000000E+00
2.8300000000000E+00  0.0000000000000E+00  0.0000000000000E+00
2.8400000000000E+00  0.0000000000000E+00  0.0000000000000E+00
2.8500000000000E+00  0.0000000000000E+00  0.0000000000000E+00
2.8600000000000E+00  0.0000000000000E+00  0.0000000000000E+00
2.8700000000000E+00  0.0000000000000E+00  0.0000000000000E+00
2.8800000000000E+00  0.0000000000000E+00  0.0000000000000E+00
2.8900000000000E+00  0.0000000000000E+00  0.0000000000000E+00
2.9000000000000E+00  0.0000000000000E+00  0.0000000000000E+00
2.9100000000000E+00  0.0000000000000E+00  0.0000000000000E+00
2.9200000000000E+00  0.0000000000000E+00  0.0000000000000E+00
2.9300000000000E+00  0.0000000000000E+00  0.0000000000000E+00
2.9400000000000E+00  0.0000000000000E+00  0.0000000000000E+00
2.9500000000000E+00  0.0000000000000E+00  0.0000000000000E+00
2.9600000000000E+00  0.0000000000000E+00  0.0000000000000E+00
2.9700000000000E+00  0.0000000000000E+00  0.0000000000000E+00
2.9800000000000E+00  0.0000000000000E+00  0.0000000000000E+00
2.9900000000000E+00  0.0000000000000E+00  0.0000000000000E+00
3.0000000000000E+00  0.0000000000000E+00  0.0000000000000E+00
3.0100000000000E+00  0.0000000000000E+00  0.0000000000000E+00
3.0200000000000E+00  0.0000000000000E+00  0.0000000000000E+00
3.0300000000000E+00  0.0000000000000E+00  0.0000000000000E+00
3.0400000000000E+00  0.0000000000000E+00  0.0000000000000E+00
3.0500000000000E+00  0.0000000000000E+00  0.0000000000000E+00
3.0600000000000E+00  0.0000000000000E+00  0.0000000000000E+00
3.0700000000000E+00  0.0000000000000E+00  0.0000000000000E+00
3.0800000000000E+00  0.0000000000000E+00  0.0000000000000E+00
3.0900000000000E+00  0.0000000000000E+00  0.0000000000000E+00
3.1000000000000E+00  0.0000000000000E+00  0.0000000000000E+00
3.1100000000000E+00  0.0000000000000E+00  0.0000000000000E+00
3.1200000000000E+00  0.0000000000000E+00  0.0000000000000E+00
3.1300000000000E+00  0.0000000000000E+00  0.0000000000000E+00
3.1400000000000E+00  0.0000000000000E+00  0.0000000000000E+00
3.1500000000000E+00  0.0000000000000E+00  0.0000000000000E+00
3.1600000000000E+00  0.0000000000000E+00  0.0000000000000E+00
3.1700000000000E+00  0.0000000000000E+00  0.0000000000000E+00
3.1800000000000E+00  0.0000000000000E+00  0.0000000000000E+00
3.1900000000000E+00  0.0000000000000E+00  0.0000000000000E+00
3.2000000000000E+00  0.0000000000000E+00  0.0000000000000E+00
3.2100000000000E+00  0.0000000000000E+00  0.0000000000000E+00
3.2200000000000E+00  0.0000000000000E+00  0.0000000000000E+00
3.2300000000000E+00  0.0000000000000E+00  0.0000000000000E+00
3.2400000000000E+00  0.0000000000000E+00  0.0000000000000E+00
3.2500000000000E+00  0.0000000000000E+00  0.0000000000000E+00
3.2600000000000E+00  0.0000000000000E+00  0.0000000000000E+00
3.2700000000000E+00  0.0000000000000E+00  0.0000000000000E+00
3.2800000000000E+00  0.0000000000000E+00  0.0000000000000E+00
3.2900000000000E+00  0.0000000000000E+00  0.0000000000000E+00
3.3000000000000E+00  0.0000000000000E+00  0.0000000000000E+00
3.3100000000000E+00  0.0000000000000E+00  0.0000000000000E+00
3.3200000000000E+00  0.0000000000000E+00  0.0000000000000E+00
3.3300000000000E+00  0.0000000000000E+00  0.0000000000000E+00
3.3400000000000E+00  0.0000000000000E+00  0.0000000000000E+00
3.3500000000000E+00  0.0000000000000E+00  0.0000000000000E+00
3.3600000000000E+00  0.0000000000000E+00  0.0000000000000E+00
3.3700000000000E+00  0.0000000000000E+00  0.0000000000000E+00
3.3800000000000E+00  0.0000000000000E+00  0.0000000000000E+00
3.3900000000000E+00  0.0000000000000E+00  0.0000000000000E+00
3.4000000000000E+00  0.0000000000000E+00  0.0000000000000E+00
3.4100000000000E+00  0.0000000000000E+00  0.0000000000000E+00
3.4200000000000E+00  0.0000000000000E+00  0.0000000000000E+00
3.4300000000000E+00  0.0000000000000E+00  0.0000000000000E+00
3.4400000000000E+00  0.0000000000000E+00  0.0000000000000E+00
3.4500000000000E+00  0.0000000000000E+00  0.0000000000000E+00
3.4600000000000E+00  0.0000000000000E+00  0.0000000000000E+00
3.4700000000000E+00  0.0000000000000E+00  0.0000000000000E+00
3.4800000000000E+00  0.0000000000000E+00  0.0000000000000E+00
3.4900000000000E+00  0.0000000000000E+00  0.0000000000000E+00
3.5000000000000E+00  0.0000000000000E+00  0.0000000000000E+00
3.5100000000000E+00  0.0000000000000E+00  0.0000000000000E+00
3.5200000000000E+00  0.0000000000000E+00  0.0000000000000E+00
3.5300000000000E+00  0.0000000000000E+00  0.0000000000000E+00
3.5400000000000E+00  0.0000000000000E+00  0.0000000000000E+00
3.5500000000000E+00  0.0000000000000E+00  0.0000000000000E+00
3.5600000000000E+00  0.0000000000000E+00  0.0000000000000E+00
3.5700000000000E+00  0.0000000000000E+00  0.0000000000000E+00
3.5800000000000E+00  0.0000000000000E+00  0.0000000000000E+00
3.5900000000000E+00  0.0000000000000E+00  0.0000000000000E+00
3.6000000000000E+00  0.0000000000000E+00  0.0000000000000E+00
3.6100000000000E+00  0.0000000000000E+00  0.0000000000000E+00
3.6200000000000E+00  0.0000000000000E+00  0.0000000000000E+00
3.6300000000000E+00  0.0000000000000E+00  0.0000000000000E+00
3.6400000000000E+00  0.0000000000000E+00  0.0000000000000E+00
3.6500000000000E+00  0.0000000000000E+00  0.0000000000000E+00
3.6600000000000E+00  0.0000000000000E+00  0.0000000000000E+00
3.6700000000000E+00  0.0000000000000E+00  0.0000000000000E+00
3.6800000000000E+00  0.0000000000000E+00  0.0000000000000E+00
3.6900000000000E+00  0.0000000000000E+00  0.0000000000000E+00
3.7000000000000E+00  0.0000000000000E+00  0.0000000000000E+00
3.7100000000000E+00  0.0000000000000E+00  0.0000000000000E+00
3.7200000000000E+00  0.0000000000000E+00  0.0000000000000E+00
3.7300000000000E+00  0.0000000000000E+00  0.0000000000000E+00
3.7400000000000E+00  0.0000000000000E+00  0.0000000000000E+00
3.7500000000000E+00  0.0000000000000E+00  0.0000000000000E+00
3.7600000000000E+00  0.0000000000000E+00  0.0000000000000E+00
3.7700000000000E+00  0.0000000000000E+00  0.0000000000000E+00
3.7800000000000E+00  0.0000000000000E+00  0.0000000000000E+00
3.7900000000000E+00  0.0000000000000E+00  0.0000000000000E+00
3.8000000000000E+00  0.0000000000000E+00  0.0000000000000E+00
3.8100000000000E+00  0.0000000000000E+00  0.0000000000000E+00
3.8200000000000E+00  0.0000000000000E+00  0.0000000000000E+00
3.8300000000000E+00  0.0000000000000E+00  0.0000000000000E+00
3.8400000000000E+00  0.0000000000000E+00  0.0000000000000E+00
3.8500000000000E+00  0.0000000000000E+00  0.0000000000000E+00
3.8600000000000E+00  0.0000000000000E+00  0.0000000000000E+00
3.8700000000000E+00  0.0000000000000E+00  0.0000000000000E+00
3.8800000000000E+00  0.0000000000000E+00  0.0000000000000E+00
3.8900000000000E+00  0.0000000000000E+00  0.0000000000000E+00
3.9000000000000E+00  0.0000000000000E+00  0.0000000000000E+00
3.9100000000000E+00  0.0000000000000E+00  0.0000000000000E+00
3.9200000000000E+00  0.0000000000000E+00  0.0000000000000E+00
3.9300000000000E+00  0.0000000000000E+00  0.0000000000000E+00
3.9400000000000E+00  0.0000000000000E+00  0.0000000000000E+00
3.9500000000000E+00  0.0000000000000E+00  0.0000000000000E+00
3.9600000000000E+00  0.0000000000000E+00  0.0000000000000E+00
3.9700000000000E+00  0.0000000000000E+00  0.0000000000000E+00
3.9800000000000E+00  0.0000000000000E+00  0.0000000000000E+00
3.9900000000000E+00  0.0000000000000E+00  0.0000000000000E+00
4.0000000000000E+00  0.0000000000000E+00  0.0000000000000E+00
4.0100000000000E+00  0.0000000000000E+00  0.0000000000000E+00
4.0200000000000E+00  0.0000000000000E+00  0.0000000000000E+00
4.0300000000000E+00  0.0000000000000E+00  0.0000000000000E+00
4.0400000000000E+00  0.0000000000000E+00  0.0000000000000E+00
4.0500000000000E+00  0.0000000000000E+00  0.0000000000000E+00
4.0600000000000E+00  0.0000000000000E+00  0.0000000000000E+00
4.0700000000000E+00  0.0000000000000E+00  0.0000000000000E+00
4.0800000000000E+00  0.0000000000000E+00  0.0000000000000E+00
4.0900000000000E+00  0.0000000000000E+00  0.0000000000000E+00
4.1000000000000E+00  0.0000000000000E+00  0.0000000000000E+00
4.1100000000000E+00  0.0000000000000E+00  0.0000000000000E+00
4.1200000000000E+00  0.0000000000000E+00  0.0000000000000E+00
4.1300000000000E+00  0.0000000000000E+00  0.0000000000000E+00
4.1400000000000E+00  0.0000000000000E+00  0.0000000000000E+00
4.1500000000000E+00  0.0000000000000E+00  0.0000000000000E+00
4.1600000000000E+00  0.0000000000000E+00  0.0000000000000E+00
4.1700000000000E+00  0.0000000000000E+00  0.0000000000000E+00
4.1800000000000E+00  0.0000000000000E+00  0.0000000000000E+00
4.1900000000000E+00  0.0000000000000E+00  0.0000000000000E+00
4.2000000000000E+00  0.0000000000000E+00  0.0000000000000E+00
4.2100000000000E+00  0.0000000000000E+00  0.0000000000000E+00
4.2200000000000E+00  0.0000000000000E+00  0.0000000000000E+00
4.2300000000000E+00  0.0000000000000E+00  0.0000000000000E+00
4.2400000000000E+00  0.0000000000000E+00  0.0000000000000E+00
4.2500000000000E+00  0.0000000000000E+00  0.0000000000000E+00
4.2600000000000E+00  0.0000000000000E+00  0.0000000000000E+00
4.2700000000000E+00  0.0000000000000E+00  0.0000000000000E+00
4.2800000000000E+00  0.0000000000000E+00  0.0000000000000E+00
4.2900000000000E+00  0.0000000000000E+00  0.0000000000000E+00
4.3000000000000E+00  0.0000000000000E+00  0.0000000000000E+00
4.3100000000000E+00  0.0000000000000E+00  0.0000000000000E+00
4.3200000000000E+00  0.0000000000000E+00  0.0000000000000E+00
4.3300000000000E+00  0.0000000000000E+00  0.0000000000000E+00
4.3400000000000E+00  0.0000000000000E+00  0.0000000000000E+00
4.3500000000000E+00  0.0000000000000E+00  0.0000000000000E+00
4.3600000000000E+00  0.0000000000000E+00  0.0000000000000E+00
4.3700000000000E+00  0.0000000000000E+00  0.0000000000000E+00
4.3800000000000E+00  0.0000000000000E+00  0.0000000000000E+00
4.3900000000000E+00  0.0000000000000E+00  0.0000000000000E+00
4.4000000000000E+00  0.0000000000000E+00  0.0000000000000E+00
4.4100000000000E+00  0.0000000000000E+00  0.0000000000000E+00
4.4200000000000E+00  0.0000000000000E+00  0.0000000000000E+00
4.4300000000000E+00  0.0000000000000E+00  0.0000000000000E+00
4.4400000000000E+00  0.0000000000000E+00  0.0000000000000E+00