# 
#  This pseudopotential file has been produced using the code
#  ONCVPSP (Optimized Norm-Conservinng Vanderbilt PSeudopotential)
#  scalar-relativistic version 2.1.1, 03/26/2014 by D. R. Hamann
#  as distributed by Mat-Sim Research at www.mat-simresearch.com.
#  Reference:
#    D. R. Hamann, Phys. Rev. B 88, 085117 (2013)
#    DOI:https://doi.org/10.1103/PhysRevB.88.085117
#
#
#  Pseudopotential generation was done by M. Schlipf and F. Gygi using
#  the input parameters obtained from their optimization algorithm.
#  Reference:
#    M. Schlipf and F. Gygi, Computer Physics Communications (2015)
#    DOI: 10.1016/j.cpc.2015.05.011
#    http://dx.doi.org/10.1016/j.cpc.2015.05.011
#    http://www.quantum-simulation.org
#  License:
#  This work is licensed under the Creative Commons Attribution-ShareAlike
#  4.0 International License. To view a copy of this license, visit
#  http://creativecommons.org/licenses/by-sa/4.0/ or send a letter to
#  Creative Commons, PO Box 1866, Mountain View, CA 94042, USA.
#
#
#  Format:
#    The format of this file has been adapted to match MGmol pseudopotential
#    parser using the script convertONCVPSP_SG15.py
# 
# 
O_ONCV_PBE-1
#
color
#radii of balls and covalent bonds
-1.  -1.
# Nlcc flag
0
# Atomic number
8
# Atomic mass
15.9989996
# Number of valence electrons
6
#Gaussian core charge parameter rc
1.0
# Number of potentials
3
# l-value for state which is local, then type of potential format
2 3
# Local potential radius
3.2
# Non-local potential radius
3.2
# number of points in radial grid
602
# VANDERBILT-KLEINMAN-BYLANDER PROJECTORs
# l, nproj
0 2     0.9757151948E+01     0.1376126721E+01 
1 2    -0.4806858825E+01    -0.1616239702E+01 
# l= 0
0.0 -8.2288344119 -1.180059208 
0.01 -8.2277987587 -1.1723087215 
0.02 -8.224825047 -1.1485294142 
0.03 -8.2197771964 -1.1092587592 
0.04 -8.2125191268 -1.0550342293 
0.05 -8.2028631394 -0.986598725 
0.06 -8.1905726877 -0.90489115999 
0.07 -8.1753658779 -0.81103456483 
0.08 -8.1569196552 -0.70632186216 
0.09 -8.1348746224 -0.59219949404 
0.1 -8.1088404273 -0.4702491133 
0.11 -8.0784016529 -0.34216757071 
0.12 -8.0431241316 -0.20974545592 
0.13 -8.0025616045 -0.074844464923 
0.14 -7.95626264 0.060626113918 
0.15 -7.903777722 0.19473350037 
0.16 -7.8446664175 0.32554579816 
0.17 -7.7785045299 0.45115633425 
0.18 -7.7048911473 0.56970765619 
0.19 -7.6234554991 0.67941489356 
0.2 -7.5338635191 0.77858815597 
0.21 -7.435824047 0.86565372568 
0.22 -7.3290945725 0.93917373884 
0.23 -7.213486467 0.99786416502 
0.24 -7.0888696104 1.0406107925 
0.25 -6.9551763512 1.0664830146 
0.26 -6.8124048239 1.0747454817 
0.27 -6.6606214342 1.0648670402 
0.28 -6.4999625991 1.0365272197 
0.29 -6.3306356936 0.98962012112 
0.3 -6.1529191635 0.92425559458 
0.31 -5.9671618148 0.84075774405 
0.32 -5.7737812792 0.73966077068 
0.33 -5.5732615697 0.62170190835 
0.34 -5.3661502686 0.48781313168 
0.35 -5.1530542704 0.33910835197 
0.36 -4.9346356494 0.17687094375 
0.37 -4.7116061176 0.0025369093008 
0.38 -4.4847215236 -0.18232183212 
0.39 -4.2547755 -0.37601674967 
0.4 -4.0225927275 -0.5767631377 
0.41 -3.789021918 -0.78270134181 
0.42 -3.5549284921 -0.99191882943 
0.43 -3.3211870697 -1.2024727114 
0.44 -3.0886738667 -1.4124124175 
0.45 -2.8582590821 -1.6198022369 
0.46 -2.6307993665 -1.822743438 
0.47 -2.4071304586 -2.0193956848 
0.48 -2.1880600839 -2.2079974509 
0.49 -1.9743614318 -2.3868845284 
0.5 -1.7667661472 -2.5545095916 
0.51 -1.5659589316 -2.7094569036 
0.52 -1.3725725944 -2.8504554633 
0.53 -1.1871821128 -2.9763945383 
0.54 -1.0103014909 -3.0863310608 
0.55 -0.84238045173 -3.1794972175 
0.56 -0.68380025763 -3.2553099241 
0.57 -0.53487421295 -3.3133674324 
0.58 -0.39584320879 -3.3534586934 
0.59 -0.26687853491 -3.375553309 
0.6 -0.1480792319 -3.3798052967 
0.61 -0.039474604172 -3.3665432863 
0.62 0.058973696506 -3.3362617028 
0.63 0.14737201841 -3.2896173522 
0.64 0.22588858751 -3.2274103874 
0.65 0.29475171979 -3.1505754171 
0.66 0.35424674663 -3.0601690155 
0.67 0.40470977433 -2.9573504833 
0.68 0.44652311232 -2.8433665448 
0.69 0.48011186549 -2.7195373925 
0.7 0.50593701644 -2.5872366016 
0.71 0.52449006703 -2.4478742208 
0.72 0.53628751882 -2.3028797083 
0.73 0.54186504105 -2.1536852586 
0.74 0.54177222862 -2.0017083972 
0.75 0.53656633799 -1.8483363496 
0.76 0.52680699767 -1.6949111127 
0.77 0.51305092215 -1.5427154498 
0.78 0.4958468512 -1.3929600712 
0.79 0.47573077787 -1.2467721097 
0.8 0.45322150542 -1.1051849865 
0.81 0.42881656679 -0.9691297424 
0.82 0.40298853283 -0.83942787604 
0.83 0.37618172834 -0.71678571026 
0.84 0.3488093677 -0.60179027731 
0.85 0.3212511148 -0.49490669113 
0.86 0.29385106529 -0.39647695115 
0.87 0.26691614271 -0.30672010077 
0.88 0.24071489431 -0.22573364416 
0.89 0.21547666671 -0.15349610817 
0.9 0.19139111216 -0.089870499024 
0.91 0.16860801139 -0.034608638975 
0.92 0.14724008998 0.012630785689 
0.93 0.12736769446 0.052257623273 
0.94 0.10904218511 0.084734283764 
0.95 0.092288255633 0.11056619565 
0.96 0.077106410168 0.13029208126 
0.97 0.063475693272 0.14447417607 
0.98 0.051356341611 0.15368919902 
0.99 0.040691376603 0.15851884916 
1.0 0.031410783526 0.1595404323 
1.01 0.023433542614 0.15731926931 
1.02 0.016670120016 0.15240142742 
1.03 0.011024822512 0.14530729924 
1.04 0.0063979623559 0.13652898666 
1.05 0.0026876836892 0.12651713902 
1.06 -0.0002075588754 0.11568414311 
1.07 -0.0023876511067 0.10439979814 
1.08 -0.0039494784139 0.092990076136 
1.09 -0.0049861882425 0.08173899473 
1.1 -0.0055844938061 0.070876159935 
1.11 -0.0058252874847 0.060590582909 
1.12 -0.0057827735968 0.051028697729 
1.13 -0.0055250110132 0.04230067625 
1.14 -0.0051107888065 0.034469127068 
1.15 -0.0045919917921 0.027566194293 
1.16 -0.0040134863188 0.021595067537 
1.17 -0.0034137006464 0.016533910549 
1.18 -0.002821978993 0.01233205276 
1.19 -0.0022623220034 0.0089257781676 
1.2 -0.0017534837901 0.0062388681811 
1.21 -0.001307377711 0.0041831771332 
1.22 -0.00093085803251 0.0026674086842 
1.23 -0.00062716887157 0.0015994584418 
1.24 -0.00039517748612 0.00088813747378 
1.25 -0.00022948479246 0.00045042709164 
1.26 -0.0001225452448 0.0002096699066 
1.27 -6.4012346854e-05 9.776406312e-05 
1.28 -4.1374086978e-05 6.5342574048e-05 
1.29 -3.8003859901e-05 6.4686459106e-05 
1.3 -1.7426172275e-05 3.0548376023e-05 
1.31 1.5879546854e-06 -2.7408732959e-06 
1.32 1.2287933823e-06 -2.1209465225e-06 
1.33 0.0 0.0 
1.34 0.0 0.0 
1.35 0.0 0.0 
1.36 0.0 0.0 
1.37 0.0 0.0 
1.38 0.0 0.0 
1.39 0.0 0.0 
1.4 0.0 0.0 
1.41 0.0 0.0 
1.42 0.0 0.0 
1.43 0.0 0.0 
1.44 0.0 0.0 
1.45 0.0 0.0 
1.46 0.0 0.0 
1.47 0.0 0.0 
1.48 0.0 0.0 
1.49 0.0 0.0 
1.5 0.0 0.0 
1.51 0.0 0.0 
1.52 0.0 0.0 
1.53 0.0 0.0 
1.54 0.0 0.0 
1.55 0.0 0.0 
1.56 0.0 0.0 
1.57 0.0 0.0 
1.58 0.0 0.0 
1.59 0.0 0.0 
1.6 0.0 0.0 
1.61 0.0 0.0 
1.62 0.0 0.0 
1.63 0.0 0.0 
1.64 0.0 0.0 
1.65 0.0 0.0 
1.66 0.0 0.0 
1.67 0.0 0.0 
1.68 0.0 0.0 
1.69 0.0 0.0 
1.7 0.0 0.0 
1.71 0.0 0.0 
1.72 0.0 0.0 
1.73 0.0 0.0 
1.74 0.0 0.0 
1.75 0.0 0.0 
1.76 0.0 0.0 
1.77 0.0 0.0 
1.78 0.0 0.0 
1.79 0.0 0.0 
1.8 0.0 0.0 
1.81 0.0 0.0 
1.82 0.0 0.0 
1.83 0.0 0.0 
1.84 0.0 0.0 
1.85 0.0 0.0 
1.86 0.0 0.0 
1.87 0.0 0.0 
1.88 0.0 0.0 
1.89 0.0 0.0 
1.9 0.0 0.0 
1.91 0.0 0.0 
1.92 0.0 0.0 
1.93 0.0 0.0 
1.94 0.0 0.0 
1.95 0.0 0.0 
1.96 0.0 0.0 
1.97 0.0 0.0 
1.98 0.0 0.0 
1.99 0.0 0.0 
2.0 0.0 0.0 
2.01 0.0 0.0 
2.02 0.0 0.0 
2.03 0.0 0.0 
2.04 0.0 0.0 
2.05 0.0 0.0 
2.06 0.0 0.0 
2.07 0.0 0.0 
2.08 0.0 0.0 
2.09 0.0 0.0 
2.1 0.0 0.0 
2.11 0.0 0.0 
2.12 0.0 0.0 
2.13 0.0 0.0 
2.14 0.0 0.0 
2.15 0.0 0.0 
2.16 0.0 0.0 
2.17 0.0 0.0 
2.18 0.0 0.0 
2.19 0.0 0.0 
2.2 0.0 0.0 
2.21 0.0 0.0 
2.22 0.0 0.0 
2.23 0.0 0.0 
2.24 0.0 0.0 
2.25 0.0 0.0 
2.26 0.0 0.0 
2.27 0.0 0.0 
2.28 0.0 0.0 
2.29 0.0 0.0 
2.3 0.0 0.0 
2.31 0.0 0.0 
2.32 0.0 0.0 
2.33 0.0 0.0 
2.34 0.0 0.0 
2.35 0.0 0.0 
2.36 0.0 0.0 
2.37 0.0 0.0 
2.38 0.0 0.0 
2.39 0.0 0.0 
2.4 0.0 0.0 
2.41 0.0 0.0 
2.42 0.0 0.0 
2.43 0.0 0.0 
2.44 0.0 0.0 
2.45 0.0 0.0 
2.46 0.0 0.0 
2.47 0.0 0.0 
2.48 0.0 0.0 
2.49 0.0 0.0 
2.5 0.0 0.0 
2.51 0.0 0.0 
2.52 0.0 0.0 
2.53 0.0 0.0 
2.54 0.0 0.0 
2.55 0.0 0.0 
2.56 0.0 0.0 
2.57 0.0 0.0 
2.58 0.0 0.0 
2.59 0.0 0.0 
2.6 0.0 0.0 
2.61 0.0 0.0 
2.62 0.0 0.0 
2.63 0.0 0.0 
2.64 0.0 0.0 
2.65 0.0 0.0 
2.66 0.0 0.0 
2.67 0.0 0.0 
2.68 0.0 0.0 
2.69 0.0 0.0 
2.7 0.0 0.0 
2.71 0.0 0.0 
2.72 0.0 0.0 
2.73 0.0 0.0 
2.74 0.0 0.0 
2.75 0.0 0.0 
2.76 0.0 0.0 
2.77 0.0 0.0 
2.78 0.0 0.0 
2.79 0.0 0.0 
2.8 0.0 0.0 
2.81 0.0 0.0 
2.82 0.0 0.0 
2.83 0.0 0.0 
2.84 0.0 0.0 
2.85 0.0 0.0 
2.86 0.0 0.0 
2.87 0.0 0.0 
2.88 0.0 0.0 
2.89 0.0 0.0 
2.9 0.0 0.0 
2.91 0.0 0.0 
2.92 0.0 0.0 
2.93 0.0 0.0 
2.94 0.0 0.0 
2.95 0.0 0.0 
2.96 0.0 0.0 
2.97 0.0 0.0 
2.98 0.0 0.0 
2.99 0.0 0.0 
3.0 0.0 0.0 
3.01 0.0 0.0 
3.02 0.0 0.0 
3.03 0.0 0.0 
3.04 0.0 0.0 
3.05 0.0 0.0 
3.06 0.0 0.0 
3.07 0.0 0.0 
3.08 0.0 0.0 
3.09 0.0 0.0 
3.1 0.0 0.0 
3.11 0.0 0.0 
3.12 0.0 0.0 
3.13 0.0 0.0 
3.14 0.0 0.0 
3.15 0.0 0.0 
3.16 0.0 0.0 
3.17 0.0 0.0 
3.18 0.0 0.0 
3.19 0.0 0.0 
3.2 0.0 0.0 
3.21 0.0 0.0 
3.22 0.0 0.0 
3.23 0.0 0.0 
3.24 0.0 0.0 
3.25 0.0 0.0 
3.26 0.0 0.0 
3.27 0.0 0.0 
3.28 0.0 0.0 
3.29 0.0 0.0 
3.3 0.0 0.0 
3.31 0.0 0.0 
3.32 0.0 0.0 
3.33 0.0 0.0 
3.34 0.0 0.0 
3.35 0.0 0.0 
3.36 0.0 0.0 
3.37 0.0 0.0 
3.38 0.0 0.0 
3.39 0.0 0.0 
3.4 0.0 0.0 
3.41 0.0 0.0 
3.42 0.0 0.0 
3.43 0.0 0.0 
3.44 0.0 0.0 
3.45 0.0 0.0 
3.46 0.0 0.0 
3.47 0.0 0.0 
3.48 0.0 0.0 
3.49 0.0 0.0 
3.5 0.0 0.0 
3.51 0.0 0.0 
3.52 0.0 0.0 
3.53 0.0 0.0 
3.54 0.0 0.0 
3.55 0.0 0.0 
3.56 0.0 0.0 
3.57 0.0 0.0 
3.58 0.0 0.0 
3.59 0.0 0.0 
3.6 0.0 0.0 
3.61 0.0 0.0 
3.62 0.0 0.0 
3.63 0.0 0.0 
3.64 0.0 0.0 
3.65 0.0 0.0 
3.66 0.0 0.0 
3.67 0.0 0.0 
3.68 0.0 0.0 
3.69 0.0 0.0 
3.7 0.0 0.0 
3.71 0.0 0.0 
3.72 0.0 0.0 
3.73 0.0 0.0 
3.74 0.0 0.0 
3.75 0.0 0.0 
3.76 0.0 0.0 
3.77 0.0 0.0 
3.78 0.0 0.0 
3.79 0.0 0.0 
3.8 0.0 0.0 
3.81 0.0 0.0 
3.82 0.0 0.0 
3.83 0.0 0.0 
3.84 0.0 0.0 
3.85 0.0 0.0 
3.86 0.0 0.0 
3.87 0.0 0.0 
3.88 0.0 0.0 
3.89 0.0 0.0 
3.9 0.0 0.0 
3.91 0.0 0.0 
3.92 0.0 0.0 
3.93 0.0 0.0 
3.94 0.0 0.0 
3.95 0.0 0.0 
3.96 0.0 0.0 
3.97 0.0 0.0 
3.98 0.0 0.0 
3.99 0.0 0.0 
4.0 0.0 0.0 
4.01 0.0 0.0 
4.02 0.0 0.0 
4.03 0.0 0.0 
4.04 0.0 0.0 
4.05 0.0 0.0 
4.06 0.0 0.0 
4.07 0.0 0.0 
4.08 0.0 0.0 
4.09 0.0 0.0 
4.1 0.0 0.0 
4.11 0.0 0.0 
4.12 0.0 0.0 
4.13 0.0 0.0 
4.14 0.0 0.0 
4.15 0.0 0.0 
4.16 0.0 0.0 
4.17 0.0 0.0 
4.18 0.0 0.0 
4.19 0.0 0.0 
4.2 0.0 0.0 
4.21 0.0 0.0 
4.22 0.0 0.0 
4.23 0.0 0.0 
4.24 0.0 0.0 
4.25 0.0 0.0 
4.26 0.0 0.0 
4.27 0.0 0.0 
4.28 0.0 0.0 
4.29 0.0 0.0 
4.3 0.0 0.0 
4.31 0.0 0.0 
4.32 0.0 0.0 
4.33 0.0 0.0 
4.34 0.0 0.0 
4.35 0.0 0.0 
4.36 0.0 0.0 
4.37 0.0 0.0 
4.38 0.0 0.0 
4.39 0.0 0.0 
4.4 0.0 0.0 
4.41 0.0 0.0 
4.42 0.0 0.0 
4.43 0.0 0.0 
4.44 0.0 0.0 
4.45 0.0 0.0 
4.46 0.0 0.0 
4.47 0.0 0.0 
4.48 0.0 0.0 
4.49 0.0 0.0 
4.5 0.0 0.0 
4.51 0.0 0.0 
4.52 0.0 0.0 
4.53 0.0 0.0 
4.54 0.0 0.0 
4.55 0.0 0.0 
4.56 0.0 0.0 
4.57 0.0 0.0 
4.58 0.0 0.0 
4.59 0.0 0.0 
4.6 0.0 0.0 
4.61 0.0 0.0 
4.62 0.0 0.0 
4.63 0.0 0.0 
4.64 0.0 0.0 
4.65 0.0 0.0 
4.66 0.0 0.0 
4.67 0.0 0.0 
4.68 0.0 0.0 
4.69 0.0 0.0 
4.7 0.0 0.0 
4.71 0.0 0.0 
4.72 0.0 0.0 
4.73 0.0 0.0 
4.74 0.0 0.0 
4.75 0.0 0.0 
4.76 0.0 0.0 
4.77 0.0 0.0 
4.78 0.0 0.0 
4.79 0.0 0.0 
4.8 0.0 0.0 
4.81 0.0 0.0 
4.82 0.0 0.0 
4.83 0.0 0.0 
4.84 0.0 0.0 
4.85 0.0 0.0 
4.86 0.0 0.0 
4.87 0.0 0.0 
4.88 0.0 0.0 
4.89 0.0 0.0 
4.9 0.0 0.0 
4.91 0.0 0.0 
4.92 0.0 0.0 
4.93 0.0 0.0 
4.94 0.0 0.0 
4.95 0.0 0.0 
4.96 0.0 0.0 
4.97 0.0 0.0 
4.98 0.0 0.0 
4.99 0.0 0.0 
5.0 0.0 0.0 
5.01 0.0 0.0 
5.02 0.0 0.0 
5.03 0.0 0.0 
5.04 0.0 0.0 
5.05 0.0 0.0 
5.06 0.0 0.0 
5.07 0.0 0.0 
5.08 0.0 0.0 
5.09 0.0 0.0 
5.1 0.0 0.0 
5.11 0.0 0.0 
5.12 0.0 0.0 
5.13 0.0 0.0 
5.14 0.0 0.0 
5.15 0.0 0.0 
5.16 0.0 0.0 
5.17 0.0 0.0 
5.18 0.0 0.0 
5.19 0.0 0.0 
5.2 0.0 0.0 
5.21 0.0 0.0 
5.22 0.0 0.0 
5.23 0.0 0.0 
5.24 0.0 0.0 
5.25 0.0 0.0 
5.26 0.0 0.0 
5.27 0.0 0.0 
5.28 0.0 0.0 
5.29 0.0 0.0 
5.3 0.0 0.0 
5.31 0.0 0.0 
5.32 0.0 0.0 
5.33 0.0 0.0 
5.34 0.0 0.0 
5.35 0.0 0.0 
5.36 0.0 0.0 
5.37 0.0 0.0 
5.38 0.0 0.0 
5.39 0.0 0.0 
5.4 0.0 0.0 
5.41 0.0 0.0 
5.42 0.0 0.0 
5.43 0.0 0.0 
5.44 0.0 0.0 
5.45 0.0 0.0 
5.46 0.0 0.0 
5.47 0.0 0.0 
5.48 0.0 0.0 
5.49 0.0 0.0 
5.5 0.0 0.0 
5.51 0.0 0.0 
5.52 0.0 0.0 
5.53 0.0 0.0 
5.54 0.0 0.0 
5.55 0.0 0.0 
5.56 0.0 0.0 
5.57 0.0 0.0 
5.58 0.0 0.0 
5.59 0.0 0.0 
5.6 0.0 0.0 
5.61 0.0 0.0 
5.62 0.0 0.0 
5.63 0.0 0.0 
5.64 0.0 0.0 
5.65 0.0 0.0 
5.66 0.0 0.0 
5.67 0.0 0.0 
5.68 0.0 0.0 
5.69 0.0 0.0 
5.7 0.0 0.0 
5.71 0.0 0.0 
5.72 0.0 0.0 
5.73 0.0 0.0 
5.74 0.0 0.0 
5.75 0.0 0.0 
5.76 0.0 0.0 
5.77 0.0 0.0 
5.78 0.0 0.0 
5.79 0.0 0.0 
5.8 0.0 0.0 
5.81 0.0 0.0 
5.82 0.0 0.0 
5.83 0.0 0.0 
5.84 0.0 0.0 
5.85 0.0 0.0 
5.86 0.0 0.0 
5.87 0.0 0.0 
5.88 0.0 0.0 
5.89 0.0 0.0 
5.9 0.0 0.0 
5.91 0.0 0.0 
5.92 0.0 0.0 
5.93 0.0 0.0 
5.94 0.0 0.0 
5.95 0.0 0.0 
5.96 0.0 0.0 
5.97 0.0 0.0 
5.98 0.0 0.0 
5.99 0.0 0.0 
6.0 0.0 0.0 
6.01 0.0 0.0 
# l= 1
0.0 0.0 0.0 
0.01 0.35860269827 0.092893242255 
0.02 0.71585391361 0.18509882338 
0.03 1.0704085376 0.27593256482 
0.04 1.4209341819 0.36471724519 
0.05 1.766117466 0.45078605889 
0.06 2.1046702187 0.53348605022 
0.07 2.4353355643 0.61218151401 
0.08 2.7568938649 0.68625735342 
0.09 3.0681684911 0.7551223843 
0.1 3.3680313934 0.81821257513 
0.11 3.6554084454 0.87499421032 
0.12 3.9292845336 0.92496696371 
0.13 4.188708366 0.96766686797 
0.14 4.4327969747 1.0026691652 
0.15 4.6607398865 1.0295910215 
0.16 4.8718029396 1.0480940897 
0.17 5.0653317203 1.0578869007 
0.18 5.2407546021 1.0587270662 
0.19 5.3975853655 1.0504232738 
0.2 5.5354253779 1.0328370521 
0.21 5.6539653212 1.0058842905 
0.22 5.7529864495 0.96953649014 
0.23 5.8323613671 0.92382173069 
0.24 5.8920543147 0.86882533126 
0.25 5.9321209565 0.80469018904 
0.26 5.9527076692 0.73161678463 
0.27 5.9540503214 0.64986282905 
0.28 5.9364725542 0.5597425505 
0.29 5.9003835645 0.46162560661 
0.3 5.8462753967 0.35593561377 
0.31 5.7747197565 0.24314828944 
0.32 5.68636436 0.12378920594 
0.33 5.5819288715 -0.001568823102 
0.34 5.4622003146 -0.13230879486 
0.35 5.3280282711 -0.26777283527 
0.36 5.1803194658 -0.40726602024 
0.37 5.0200322985 -0.55006036264 
0.38 4.8481708092 -0.6953992874 
0.39 4.665778522 -0.84250231218 
0.4 4.4739320792 -0.99056998105 
0.41 4.2737346349 -1.1387890743 
0.42 4.0663091322 -1.2863380028 
0.43 3.8527914925 -1.4323923595 
0.44 3.6343237652 -1.576130588 
0.45 3.4120472823 -1.7167397229 
0.46 3.1870958715 -1.853421155 
0.47 2.9605891774 -1.9853963708 
0.48 2.7336261547 -2.1119126039 
0.49 2.5072790471 -2.2322481297 
0.5 2.2825864805 -2.3457183131 
0.51 2.060548439 -2.4516801403 
0.52 1.8421211329 -2.5495368193 
0.53 1.6282107425 -2.6387433192 
0.54 1.4196698533 -2.718809646 
0.55 1.2172932712 -2.7893045857 
0.56 1.0218131683 -2.8498599797 
0.57 0.83389792482 -2.9001718051 
0.58 0.65414697549 -2.9400045689 
0.59 0.4830912442 -2.969190881 
0.6 0.32118949748 -2.9876343811 
0.61 0.16882851066 -2.9953093354 
0.62 0.026322943312 -2.992260374 
0.63 -0.1060862199 -2.9786032553 
0.64 -0.22822888011 -2.9545219342 
0.65 -0.34000566995 -2.9202676399 
0.66 -0.44138666675 -2.8761568057 
0.67 -0.53240809365 -2.8225673384 
0.68 -0.61316984647 -2.7599354271 
0.69 -0.68383313992 -2.688752013 
0.7 -0.74461621793 -2.6095579215 
0.71 -0.79579061038 -2.5229391883 
0.72 -0.83767703097 -2.4295219657 
0.73 -0.87064104636 -2.3299673383 
0.74 -0.89508821408 -2.2249649864 
0.75 -0.91145933293 -2.1152277901 
0.76 -0.92022555686 -2.0014857868 
0.77 -0.92188342192 -1.8844801249 
0.78 -0.91694987503 -1.7649570476 
0.79 -0.90595735349 -1.6436619569 
0.8 -0.88944896752 -1.521333621 
0.81 -0.86797383594 -1.3986985927 
0.82 -0.84208262266 -1.2764658971 
0.83 -0.81232331874 -1.1553220487 
0.84 -0.77923731126 -1.0359264511 
0.85 -0.7433557766 -0.91890722863 
0.86 -0.70519643176 -0.80485753578 
0.87 -0.66526067315 -0.69433238157 
0.88 -0.62403112772 -0.5878460039 
0.89 -0.58196963693 -0.48586982014 
0.9 -0.53951572436 -0.38883104173 
0.91 -0.49708552208 -0.29711186785 
0.92 -0.45506732678 -0.2110421656 
0.93 -0.41381564079 -0.13089011218 
0.94 -0.3736481328 -0.056859068238 
0.95 -0.33484498652 0.010911029699 
0.96 -0.2976486698 0.072341814353 
0.97 -0.26226441677 0.12741385026 
0.98 -0.22886099773 0.176163778 
0.99 -0.1975687858 0.21868399007 
1.0 -0.16848457254 0.2551151934 
1.01 -0.14167195954 0.28564381823 
1.02 -0.1171632417 0.31049777702 
1.03 -0.094961515745 0.32994201367 
1.04 -0.075044100545 0.34427368807 
1.05 -0.057360899165 0.3538190146 
1.06 -0.041841531541 0.35892578479 
1.07 -0.028396589101 0.35995950876 
1.08 -0.016920333904 0.35729885478 
1.09 -0.0072932003664 0.3513325078 
1.1 0.0006159997589 0.3424498788 
1.11 0.006945873699 0.33104010232 
1.12 0.011840648358 0.31748735692 
1.13 0.015448865774 0.30217087674 
1.14 0.017918530332 0.28545054366 
1.15 0.019396214069 0.26767182371 
1.16 0.020025587341 0.24916280436 
1.17 0.019947011003 0.23023458629 
1.18 0.019290128673 0.21116375071 
1.19 0.018178062179 0.19220653628 
1.2 0.016727009367 0.17359791035 
1.21 0.015040162485 0.15553803023 
1.22 0.013209064241 0.13819757203 
1.23 0.011316873926 0.12172564424 
1.24 0.0094345952608 0.10624167218 
1.25 0.0076182813476 0.091830674246 
1.26 0.0059163982719 0.078559580145 
1.27 0.0043663764648 0.066469951175 
1.28 0.0029913119855 0.055572220315 
1.29 0.0018086604941 0.045863707832 
1.3 0.0008259153834 0.037319958159 
1.31 4.0402288653e-05 0.029895350107 
1.32 -0.00055416664322 0.023535683434 
1.33 -0.0009721562858 0.018170095007 
1.34 -0.0012322089573 0.013719090335 
1.35 -0.0013554048609 0.01009708643 
1.36 -0.001366570628 0.0072119626909 
1.37 -0.0012903969637 0.0049713917382 
1.38 -0.0011529712088 0.0032798125068 
1.39 -0.00097747879466 0.0020488941971 
1.4 -0.00078712075035 0.0011891049143 
1.41 -0.00060072935642 0.00062088402543 
1.42 -0.00043308250197 0.00027287819269 
1.43 -0.00029749278538 7.6172591548e-05 
1.44 -0.00019723675725 -1.6267515905e-05 
1.45 -0.00013603585374 -5.3739365329e-05 
1.46 -0.00010978861339 -6.4385133534e-05 
1.47 -0.00010324704316 -6.524243835e-05 
1.48 -6.070174062e-05 -3.8505661592e-05 
1.49 -3.6759349549e-06 -2.3801282102e-06 
1.5 6.4098426032e-06 3.973932429e-06 
1.51 0.0 0.0 
1.52 0.0 0.0 
1.53 0.0 0.0 
1.54 0.0 0.0 
1.55 0.0 0.0 
1.56 0.0 0.0 
1.57 0.0 0.0 
1.58 0.0 0.0 
1.59 0.0 0.0 
1.6 0.0 0.0 
1.61 0.0 0.0 
1.62 0.0 0.0 
1.63 0.0 0.0 
1.64 0.0 0.0 
1.65 0.0 0.0 
1.66 0.0 0.0 
1.67 0.0 0.0 
1.68 0.0 0.0 
1.69 0.0 0.0 
1.7 0.0 0.0 
1.71 0.0 0.0 
1.72 0.0 0.0 
1.73 0.0 0.0 
1.74 0.0 0.0 
1.75 0.0 0.0 
1.76 0.0 0.0 
1.77 0.0 0.0 
1.78 0.0 0.0 
1.79 0.0 0.0 
1.8 0.0 0.0 
1.81 0.0 0.0 
1.82 0.0 0.0 
1.83 0.0 0.0 
1.84 0.0 0.0 
1.85 0.0 0.0 
1.86 0.0 0.0 
1.87 0.0 0.0 
1.88 0.0 0.0 
1.89 0.0 0.0 
1.9 0.0 0.0 
1.91 0.0 0.0 
1.92 0.0 0.0 
1.93 0.0 0.0 
1.94 0.0 0.0 
1.95 0.0 0.0 
1.96 0.0 0.0 
1.97 0.0 0.0 
1.98 0.0 0.0 
1.99 0.0 0.0 
2.0 0.0 0.0 
2.01 0.0 0.0 
2.02 0.0 0.0 
2.03 0.0 0.0 
2.04 0.0 0.0 
2.05 0.0 0.0 
2.06 0.0 0.0 
2.07 0.0 0.0 
2.08 0.0 0.0 
2.09 0.0 0.0 
2.1 0.0 0.0 
2.11 0.0 0.0 
2.12 0.0 0.0 
2.13 0.0 0.0 
2.14 0.0 0.0 
2.15 0.0 0.0 
2.16 0.0 0.0 
2.17 0.0 0.0 
2.18 0.0 0.0 
2.19 0.0 0.0 
2.2 0.0 0.0 
2.21 0.0 0.0 
2.22 0.0 0.0 
2.23 0.0 0.0 
2.24 0.0 0.0 
2.25 0.0 0.0 
2.26 0.0 0.0 
2.27 0.0 0.0 
2.28 0.0 0.0 
2.29 0.0 0.0 
2.3 0.0 0.0 
2.31 0.0 0.0 
2.32 0.0 0.0 
2.33 0.0 0.0 
2.34 0.0 0.0 
2.35 0.0 0.0 
2.36 0.0 0.0 
2.37 0.0 0.0 
2.38 0.0 0.0 
2.39 0.0 0.0 
2.4 0.0 0.0 
2.41 0.0 0.0 
2.42 0.0 0.0 
2.43 0.0 0.0 
2.44 0.0 0.0 
2.45 0.0 0.0 
2.46 0.0 0.0 
2.47 0.0 0.0 
2.48 0.0 0.0 
2.49 0.0 0.0 
2.5 0.0 0.0 
2.51 0.0 0.0 
2.52 0.0 0.0 
2.53 0.0 0.0 
2.54 0.0 0.0 
2.55 0.0 0.0 
2.56 0.0 0.0 
2.57 0.0 0.0 
2.58 0.0 0.0 
2.59 0.0 0.0 
2.6 0.0 0.0 
2.61 0.0 0.0 
2.62 0.0 0.0 
2.63 0.0 0.0 
2.64 0.0 0.0 
2.65 0.0 0.0 
2.66 0.0 0.0 
2.67 0.0 0.0 
2.68 0.0 0.0 
2.69 0.0 0.0 
2.7 0.0 0.0 
2.71 0.0 0.0 
2.72 0.0 0.0 
2.73 0.0 0.0 
2.74 0.0 0.0 
2.75 0.0 0.0 
2.76 0.0 0.0 
2.77 0.0 0.0 
2.78 0.0 0.0 
2.79 0.0 0.0 
2.8 0.0 0.0 
2.81 0.0 0.0 
2.82 0.0 0.0 
2.83 0.0 0.0 
2.84 0.0 0.0 
2.85 0.0 0.0 
2.86 0.0 0.0 
2.87 0.0 0.0 
2.88 0.0 0.0 
2.89 0.0 0.0 
2.9 0.0 0.0 
2.91 0.0 0.0 
2.92 0.0 0.0 
2.93 0.0 0.0 
2.94 0.0 0.0 
2.95 0.0 0.0 
2.96 0.0 0.0 
2.97 0.0 0.0 
2.98 0.0 0.0 
2.99 0.0 0.0 
3.0 0.0 0.0 
3.01 0.0 0.0 
3.02 0.0 0.0 
3.03 0.0 0.0 
3.04 0.0 0.0 
3.05 0.0 0.0 
3.06 0.0 0.0 
3.07 0.0 0.0 
3.08 0.0 0.0 
3.09 0.0 0.0 
3.1 0.0 0.0 
3.11 0.0 0.0 
3.12 0.0 0.0 
3.13 0.0 0.0 
3.14 0.0 0.0 
3.15 0.0 0.0 
3.16 0.0 0.0 
3.17 0.0 0.0 
3.18 0.0 0.0 
3.19 0.0 0.0 
3.2 0.0 0.0 
3.21 0.0 0.0 
3.22 0.0 0.0 
3.23 0.0 0.0 
3.24 0.0 0.0 
3.25 0.0 0.0 
3.26 0.0 0.0 
3.27 0.0 0.0 
3.28 0.0 0.0 
3.29 0.0 0.0 
3.3 0.0 0.0 
3.31 0.0 0.0 
3.32 0.0 0.0 
3.33 0.0 0.0 
3.34 0.0 0.0 
3.35 0.0 0.0 
3.36 0.0 0.0 
3.37 0.0 0.0 
3.38 0.0 0.0 
3.39 0.0 0.0 
3.4 0.0 0.0 
3.41 0.0 0.0 
3.42 0.0 0.0 
3.43 0.0 0.0 
3.44 0.0 0.0 
3.45 0.0 0.0 
3.46 0.0 0.0 
3.47 0.0 0.0 
3.48 0.0 0.0 
3.49 0.0 0.0 
3.5 0.0 0.0 
3.51 0.0 0.0 
3.52 0.0 0.0 
3.53 0.0 0.0 
3.54 0.0 0.0 
3.55 0.0 0.0 
3.56 0.0 0.0 
3.57 0.0 0.0 
3.58 0.0 0.0 
3.59 0.0 0.0 
3.6 0.0 0.0 
3.61 0.0 0.0 
3.62 0.0 0.0 
3.63 0.0 0.0 
3.64 0.0 0.0 
3.65 0.0 0.0 
3.66 0.0 0.0 
3.67 0.0 0.0 
3.68 0.0 0.0 
3.69 0.0 0.0 
3.7 0.0 0.0 
3.71 0.0 0.0 
3.72 0.0 0.0 
3.73 0.0 0.0 
3.74 0.0 0.0 
3.75 0.0 0.0 
3.76 0.0 0.0 
3.77 0.0 0.0 
3.78 0.0 0.0 
3.79 0.0 0.0 
3.8 0.0 0.0 
3.81 0.0 0.0 
3.82 0.0 0.0 
3.83 0.0 0.0 
3.84 0.0 0.0 
3.85 0.0 0.0 
3.86 0.0 0.0 
3.87 0.0 0.0 
3.88 0.0 0.0 
3.89 0.0 0.0 
3.9 0.0 0.0 
3.91 0.0 0.0 
3.92 0.0 0.0 
3.93 0.0 0.0 
3.94 0.0 0.0 
3.95 0.0 0.0 
3.96 0.0 0.0 
3.97 0.0 0.0 
3.98 0.0 0.0 
3.99 0.0 0.0 
4.0 0.0 0.0 
4.01 0.0 0.0 
4.02 0.0 0.0 
4.03 0.0 0.0 
4.04 0.0 0.0 
4.05 0.0 0.0 
4.06 0.0 0.0 
4.07 0.0 0.0 
4.08 0.0 0.0 
4.09 0.0 0.0 
4.1 0.0 0.0 
4.11 0.0 0.0 
4.12 0.0 0.0 
4.13 0.0 0.0 
4.14 0.0 0.0 
4.15 0.0 0.0 
4.16 0.0 0.0 
4.17 0.0 0.0 
4.18 0.0 0.0 
4.19 0.0 0.0 
4.2 0.0 0.0 
4.21 0.0 0.0 
4.22 0.0 0.0 
4.23 0.0 0.0 
4.24 0.0 0.0 
4.25 0.0 0.0 
4.26 0.0 0.0 
4.27 0.0 0.0 
4.28 0.0 0.0 
4.29 0.0 0.0 
4.3 0.0 0.0 
4.31 0.0 0.0 
4.32 0.0 0.0 
4.33 0.0 0.0 
4.34 0.0 0.0 
4.35 0.0 0.0 
4.36 0.0 0.0 
4.37 0.0 0.0 
4.38 0.0 0.0 
4.39 0.0 0.0 
4.4 0.0 0.0 
4.41 0.0 0.0 
4.42 0.0 0.0 
4.43 0.0 0.0 
4.44 0.0 0.0 
4.45 0.0 0.0 
4.46 0.0 0.0 
4.47 0.0 0.0 
4.48 0.0 0.0 
4.49 0.0 0.0 
4.5 0.0 0.0 
4.51 0.0 0.0 
4.52 0.0 0.0 
4.53 0.0 0.0 
4.54 0.0 0.0 
4.55 0.0 0.0 
4.56 0.0 0.0 
4.57 0.0 0.0 
4.58 0.0 0.0 
4.59 0.0 0.0 
4.6 0.0 0.0 
4.61 0.0 0.0 
4.62 0.0 0.0 
4.63 0.0 0.0 
4.64 0.0 0.0 
4.65 0.0 0.0 
4.66 0.0 0.0 
4.67 0.0 0.0 
4.68 0.0 0.0 
4.69 0.0 0.0 
4.7 0.0 0.0 
4.71 0.0 0.0 
4.72 0.0 0.0 
4.73 0.0 0.0 
4.74 0.0 0.0 
4.75 0.0 0.0 
4.76 0.0 0.0 
4.77 0.0 0.0 
4.78 0.0 0.0 
4.79 0.0 0.0 
4.8 0.0 0.0 
4.81 0.0 0.0 
4.82 0.0 0.0 
4.83 0.0 0.0 
4.84 0.0 0.0 
4.85 0.0 0.0 
4.86 0.0 0.0 
4.87 0.0 0.0 
4.88 0.0 0.0 
4.89 0.0 0.0 
4.9 0.0 0.0 
4.91 0.0 0.0 
4.92 0.0 0.0 
4.93 0.0 0.0 
4.94 0.0 0.0 
4.95 0.0 0.0 
4.96 0.0 0.0 
4.97 0.0 0.0 
4.98 0.0 0.0 
4.99 0.0 0.0 
5.0 0.0 0.0 
5.01 0.0 0.0 
5.02 0.0 0.0 
5.03 0.0 0.0 
5.04 0.0 0.0 
5.05 0.0 0.0 
5.06 0.0 0.0 
5.07 0.0 0.0 
5.08 0.0 0.0 
5.09 0.0 0.0 
5.1 0.0 0.0 
5.11 0.0 0.0 
5.12 0.0 0.0 
5.13 0.0 0.0 
5.14 0.0 0.0 
5.15 0.0 0.0 
5.16 0.0 0.0 
5.17 0.0 0.0 
5.18 0.0 0.0 
5.19 0.0 0.0 
5.2 0.0 0.0 
5.21 0.0 0.0 
5.22 0.0 0.0 
5.23 0.0 0.0 
5.24 0.0 0.0 
5.25 0.0 0.0 
5.26 0.0 0.0 
5.27 0.0 0.0 
5.28 0.0 0.0 
5.29 0.0 0.0 
5.3 0.0 0.0 
5.31 0.0 0.0 
5.32 0.0 0.0 
5.33 0.0 0.0 
5.34 0.0 0.0 
5.35 0.0 0.0 
5.36 0.0 0.0 
5.37 0.0 0.0 
5.38 0.0 0.0 
5.39 0.0 0.0 
5.4 0.0 0.0 
5.41 0.0 0.0 
5.42 0.0 0.0 
5.43 0.0 0.0 
5.44 0.0 0.0 
5.45 0.0 0.0 
5.46 0.0 0.0 
5.47 0.0 0.0 
5.48 0.0 0.0 
5.49 0.0 0.0 
5.5 0.0 0.0 
5.51 0.0 0.0 
5.52 0.0 0.0 
5.53 0.0 0.0 
5.54 0.0 0.0 
5.55 0.0 0.0 
5.56 0.0 0.0 
5.57 0.0 0.0 
5.58 0.0 0.0 
5.59 0.0 0.0 
5.6 0.0 0.0 
5.61 0.0 0.0 
5.62 0.0 0.0 
5.63 0.0 0.0 
5.64 0.0 0.0 
5.65 0.0 0.0 
5.66 0.0 0.0 
5.67 0.0 0.0 
5.68 0.0 0.0 
5.69 0.0 0.0 
5.7 0.0 0.0 
5.71 0.0 0.0 
5.72 0.0 0.0 
5.73 0.0 0.0 
5.74 0.0 0.0 
5.75 0.0 0.0 
5.76 0.0 0.0 
5.77 0.0 0.0 
5.78 0.0 0.0 
5.79 0.0 0.0 
5.8 0.0 0.0 
5.81 0.0 0.0 
5.82 0.0 0.0 
5.83 0.0 0.0 
5.84 0.0 0.0 
5.85 0.0 0.0 
5.86 0.0 0.0 
5.87 0.0 0.0 
5.88 0.0 0.0 
5.89 0.0 0.0 
5.9 0.0 0.0 
5.91 0.0 0.0 
5.92 0.0 0.0 
5.93 0.0 0.0 
5.94 0.0 0.0 
5.95 0.0 0.0 
5.96 0.0 0.0 
5.97 0.0 0.0 
5.98 0.0 0.0 
5.99 0.0 0.0 
6.0 0.0 0.0 
6.01 0.0 0.0 
# local
0.0 -1.3802850173E+01
0.01 -1.5392432614E+01
0.02 -1.6174626809E+01
0.03 -1.6375683065E+01
0.04 -1.6221851691E+01
0.05 -1.5969012147E+01
0.06 -1.5732154591E+01
0.07 -1.5540544578E+01
0.08 -1.5390055267E+01
0.09 -1.5268769968E+01
0.1 -1.5165755007E+01
0.11 -1.5072868536E+01
0.12 -1.4984475158E+01
0.13 -1.4896806498E+01
0.14 -1.4807429059E+01
0.15 -1.4714872679E+01
0.16 -1.4618377147E+01
0.17 -1.4517709696E+01
0.18 -1.4413022009E+01
0.19 -1.4304730229E+01
0.2 -1.4193411990E+01
0.21 -1.4079720235E+01
0.22 -1.3964315226E+01
0.23 -1.3847815727E+01
0.24 -1.3730768605E+01
0.25 -1.3613634340E+01
0.26 -1.3496784592E+01
0.27 -1.3380507910E+01
0.28 -1.3265019601E+01
0.29 -1.3150472736E+01
0.3 -1.3036968219E+01
0.31 -1.2924562618E+01
0.32 -1.2813273273E+01
0.33 -1.2703080777E+01
0.34 -1.2593929033E+01
0.35 -1.2485724321E+01
0.36 -1.2378333444E+01
0.37 -1.2271583140E+01
0.38 -1.2165260891E+01
0.39 -1.2059118844E+01
0.4 -1.1952881231E+01
0.41 -1.1846255390E+01
0.42 -1.1738946079E+01
0.43 -1.1630671966E+01
0.44 -1.1521182712E+01
0.45 -1.1410274748E+01
0.46 -1.1297803917E+01
0.47 -1.1183693517E+01
0.48 -1.1067936963E+01
0.49 -1.0950594861E+01
0.5 -1.0831788565E+01
0.51 -1.0711688524E+01
0.52 -1.0590501858E+01
0.53 -1.0468459858E+01
0.54 -1.0345805248E+01
0.55 -1.0222782110E+01
0.56 -1.0099627326E+01
0.57 -9.9765651303E+00
0.58 -9.8538026430E+00
0.59 -9.7315287845E+00
0.6 -9.6099130787E+00
0.61 -9.4891066717E+00
0.62 -9.3692437000E+00
0.63 -9.2504423300E+00
0.64 -9.1328072978E+00
0.65 -9.0164312914E+00
0.66 -8.9013964602E+00
0.67 -8.7877762040E+00
0.68 -8.6756363459E+00
0.69 -8.5650358800E+00
0.7 -8.4560280182E+00
0.71 -8.3486607687E+00
0.72 -8.2429773579E+00
0.73 -8.1390165896E+00
0.74 -8.0368128593E+00
0.75 -7.9363964093E+00
0.76 -7.8377932974E+00
0.77 -7.7410253420E+00
0.78 -7.6461100255E+00
0.79 -7.5530603623E+00
0.8 -7.4618847396E+00
0.81 -7.3725867384E+00
0.82 -7.2851649407E+00
0.83 -7.1996127271E+00
0.84 -7.1159180668E+00
0.85 -7.0340633044E+00
0.86 -6.9540249429E+00
0.87 -6.8757734252E+00
0.88 -6.7992729144E+00
0.89 -6.7244810726E+00
0.9 -6.6513488053E+00
0.91 -6.5798200154E+00
0.92 -6.5098349548E+00
0.93 -6.4413348934E+00
0.94 -6.3742639343E+00
0.95 -6.3085688621E+00
0.96 -6.2441990342E+00
0.97 -6.1811062869E+00
0.98 -6.1192448462E+00
0.99 -6.0585714419E+00
1.0 -5.9990450329E+00
1.01 -5.9406268138E+00
1.02 -5.8832801508E+00
1.03 -5.8269705159E+00
1.04 -5.7716652846E+00
1.05 -5.7173340978E+00
1.06 -5.6639483778E+00
1.07 -5.6114813714E+00
1.08 -5.5599080546E+00
1.09 -5.5092049644E+00
1.1 -5.4593505204E+00
1.11 -5.4103244760E+00
1.12 -5.3621079558E+00
1.13 -5.3146832287E+00
1.14 -5.2680340282E+00
1.15 -5.2221450142E+00
1.16 -5.1770017303E+00
1.17 -5.1325904819E+00
1.18 -5.0888984690E+00
1.19 -5.0459133160E+00
1.2 -5.0036230559E+00
1.21 -4.9620161446E+00
1.22 -4.9210812093E+00
1.23 -4.8808069649E+00
1.24 -4.8411821852E+00
1.25 -4.8021955218E+00
1.26 -4.7638355096E+00
1.27 -4.7260905282E+00
1.28 -4.6889485769E+00
1.29 -4.6523975043E+00
1.3 -4.6164248252E+00
1.31 -4.5810181848E+00
1.32 -4.5461652555E+00
1.33 -4.5118538681E+00
1.34 -4.4780715726E+00
1.35 -4.4448058079E+00
1.36 -4.4120445105E+00
1.37 -4.3797756138E+00
1.38 -4.3479870436E+00
1.39 -4.3166671501E+00
1.4 -4.2858043375E+00
1.41 -4.2553874189E+00
1.42 -4.2254055460E+00
1.43 -4.1958480104E+00
1.44 -4.1667048785E+00
1.45 -4.1379661889E+00
1.46 -4.1096227495E+00
1.47 -4.0816656412E+00
1.48 -4.0540863859E+00
1.49 -4.0268773665E+00
1.5 -4.0000311718E+00
1.51 -3.9735406637E+00
1.52 -3.9473986161E+00
1.53 -3.9215983357E+00
1.54 -3.8961330950E+00
1.55 -3.8709964477E+00
1.56 -3.8461820690E+00
1.57 -3.8216837779E+00
1.58 -3.7974956238E+00
1.59 -3.7736116809E+00
1.6 -3.7500263412E+00
1.61 -3.7267339272E+00
1.62 -3.7037291438E+00
1.63 -3.6810065557E+00
1.64 -3.6585611528E+00
1.65 -3.6363877358E+00
1.66 -3.6144815511E+00
1.67 -3.5928376408E+00
1.68 -3.5714514759E+00
1.69 -3.5503183288E+00
1.7 -3.5294338865E+00
1.71 -3.5087936326E+00
1.72 -3.4883934616E+00
1.73 -3.4682290576E+00
1.74 -3.4482965029E+00
1.75 -3.4285916859E+00
1.76 -3.4091108501E+00
1.77 -3.3898500871E+00
1.78 -3.3708057851E+00
1.79 -3.3519742359E+00
1.8 -3.3333519554E+00
1.81 -3.3149354337E+00
1.82 -3.2967212987E+00
1.83 -3.2787062364E+00
1.84 -3.2608869729E+00
1.85 -3.2432603867E+00
1.86 -3.2258232904E+00
1.87 -3.2085727501E+00
1.88 -3.1915056569E+00
1.89 -3.1746192284E+00
1.9 -3.1579105133E+00
1.91 -3.1413767862E+00
1.92 -3.1250152823E+00
1.93 -3.1088233187E+00
1.94 -3.0927983167E+00
1.95 -3.0769376278E+00
1.96 -3.0612388377E+00
1.97 -3.0456993760E+00
1.98 -3.0303169146E+00
1.99 -3.0150890429E+00
2.0 -3.0000134422E+00
2.01 -2.9850878842E+00
2.02 -2.9703100527E+00
2.03 -2.9556778651E+00
2.04 -2.9411890977E+00
2.05 -2.9268416992E+00
2.06 -2.9126336127E+00
2.07 -2.8985627681E+00
2.08 -2.8846272662E+00
2.09 -2.8708250765E+00
2.1 -2.8571543593E+00
2.11 -2.8436132338E+00
2.12 -2.8301998241E+00
2.13 -2.8169124051E+00
2.14 -2.8037491291E+00
2.15 -2.7907083204E+00
2.16 -2.7777882785E+00
2.17 -2.7649872768E+00
2.18 -2.7523037556E+00
2.19 -2.7397360424E+00
2.2 -2.7272825828E+00
2.21 -2.7149418606E+00
2.22 -2.7027122605E+00
2.23 -2.6905923790E+00
2.24 -2.6785807134E+00
2.25 -2.6666757934E+00
2.26 -2.6548762630E+00
2.27 -2.6431806663E+00
2.28 -2.6315876667E+00
2.29 -2.6200959499E+00
2.3 -2.6087041104E+00
2.31 -2.5974109303E+00
2.32 -2.5862151194E+00
2.33 -2.5751153736E+00
2.34 -2.5641105296E+00
2.35 -2.5531993386E+00
2.36 -2.5423805973E+00
2.37 -2.5316531849E+00
2.38 -2.5210158979E+00
2.39 -2.5104676232E+00
2.4 -2.5000072809E+00
2.41 -2.4896337138E+00
2.42 -2.4793458878E+00