#ONCVPSP  (Optimized Norm-Conservinng Vanderbilt PSeudopotential)
#scalar-relativistic version 2.1.2, 09/16/2014
#D. R. Hamann, Phys. Rev. B 88, 085117 (2013)
# ATOM AND REFERENCE CONFIGURATION
# atsym  z    nc    nv    iexc   psfile
#  O  8.00     1     2     3      psp8
#   n    l    f        energy (Ha)
#    1    0    2.00    -1.8774936E+01
#    2    0    2.00    -8.7293931E-01
#    2    1    4.00    -3.3806354E-01
# PSEUDOPOTENTIAL AND OPTIMIZATION
#   l,   rc,     ep,   ncon, nbas, qcut
#    0    1.60   -0.87    4    7    8.00
#    1    1.60   -0.34    4    7    8.00
# LOCAL POTENTIAL
# lloc, lpopt,  rc(5),   dvloc0
#    4    5      1.40       0.00
#
# VANDERBILT-KLEINMAN-BYLANDER PROJECTORs
# l, nproj, debl
#    0    2    1.5000
#    1    2    1.0000
#O     ONCVPSP  r_core=  1.60  1.60
#      8.0000      6.0000      140916    zatom,zion,pspd
#     8     2     1     4   400     0    pspcod,pspxc,lmax,lloc,mmax,r2well
#  3.99000000  0.00000000  0.00000000    rchrg fchrg qchrg
#
# Short description of the species type. One line only!
Oxygen_ONCVPSP_LDA
#color
Red 
#radii of balls and covalent bonds
1.  1.8
# Nlcc flag
0
# Atomic number.
8
# Atomic mass.
16.0
# Number of valence electrons.
6
# Gaussian core charge parameter rc.
1.
# Number of potentials
3
# l-value for state which is local, then type of potential format
2   2
# Local potential radius
3.2
# Non-local potential radius
3.2
# number of points in radial grid
400
# VANDERBILT-KLEINMAN-BYLANDER PROJECTORs
# l, nproj
0   2  2.1458358424094E+00 -2.9913575022346E-01
1   2  -4.7622200822501E+00 -1.4146902875576E+00
# radial grid, and projecrtors for l=0
0.0000000000000E+00 -0.0000000000000E+00  0.0000000000000E+00
1.0000000000000E-02 -6.9660512989072E-02  4.5655944637239E-02
2.0000000000000E-02 -1.3917720114357E-01  9.1138123081462E-02
3.0000000000000E-02 -2.0840660527852E-01  1.3627314316629E-01
4.0000000000000E-02 -2.7720599653991E-01  1.8088836214146E-01
5.0000000000000E-02 -3.4543373915109E-01  2.2481226475961E-01
6.0000000000000E-02 -4.1294965026197E-01  2.6787484533858E-01
7.0000000000000E-02 -4.7961535594339E-01  3.0990799499293E-01
8.0000000000000E-02 -5.4529464237840E-01  3.5074589511942E-01
9.0000000000000E-02 -6.0985380130729E-01  3.9022541808032E-01
1.0000000000000E-01 -6.7316196880469E-01  4.2818653587947E-01
1.1000000000000E-01 -7.3509145646516E-01  4.6447273742590E-01
1.2000000000000E-01 -7.9551807410548E-01  4.9893145479532E-01
1.3000000000000E-01 -8.5432144308358E-01  5.3141449864459E-01
1.4000000000000E-01 -9.1138529942563E-01  5.6177850279473E-01
1.5000000000000E-01 -9.6659778581314E-01  5.8988537752244E-01
1.6000000000000E-01 -1.0198517317780E+00  6.1560277122477E-01
1.7000000000000E-01 -1.0710449210692E+00  6.3880453924156E-01
1.8000000000000E-01 -1.1200803457068E+00  6.5937121913530E-01
1.9000000000000E-01 -1.1668664459011E+00  6.7719051093294E-01
2.0000000000000E-01 -1.2113173348649E+00  6.9215776014661E-01
2.1000000000000E-01 -1.2533530083210E+00  7.0417644243846E-01
2.2000000000000E-01 -1.2928995376513E+00  7.1315864694282E-01
2.3000000000000E-01 -1.3298892465119E+00  7.1902555659623E-01
2.4000000000000E-01 -1.3642608699068E+00  7.2170792180409E-01
2.5000000000000E-01 -1.3959596953314E+00  7.2114652454631E-01
2.6000000000000E-01 -1.4249376864344E+00  7.1729263231440E-01
2.7000000000000E-01 -1.4511535868989E+00  7.1010843355693E-01
2.8000000000000E-01 -1.4745730058406E+00  6.9956745529956E-01
2.9000000000000E-01 -1.4951684839730E+00  6.8565495840304E-01
3.0000000000000E-01 -1.5129195400033E+00  6.6836830588487E-01
3.1000000000000E-01 -1.5278126972220E+00  6.4771730093662E-01
3.2000000000000E-01 -1.5398414900795E+00  6.2372449052544E-01
3.3000000000000E-01 -1.5490064502284E+00  5.9642542695314E-01
3.4000000000000E-01 -1.5553150747634E+00  5.6586890219068E-01
3.5000000000000E-01 -1.5587817706324E+00  5.3211711083625E-01
3.6000000000000E-01 -1.5594277829790E+00  4.9524579371603E-01
3.7000000000000E-01 -1.5572811010879E+00  4.5534429976472E-01
3.8000000000000E-01 -1.5523763462453E+00  4.1251561501450E-01
3.9000000000000E-01 -1.5447546395118E+00  3.6687631919918E-01
4.0000000000000E-01 -1.5344634514066E+00  3.1855648177284E-01
4.1000000000000E-01 -1.5215564327834E+00  2.6769949603026E-01
4.2000000000000E-01 -1.5060932277738E+00  2.1446184468703E-01
4.3000000000000E-01 -1.4881392693490E+00  1.5901279632856E-01
4.4000000000000E-01 -1.4677655581046E+00  1.0153403126007E-01
4.5000000000000E-01 -1.4450484249171E+00  4.2219195606410E-02
4.6000000000000E-01 -1.4200692782002E+00 -1.8726617074447E-02
4.7000000000000E-01 -1.3929143366416E+00 -8.1087456789540E-02
4.8000000000000E-01 -1.3636743486774E+00 -1.4463717965557E-01
4.9000000000000E-01 -1.3324443090418E+00 -2.0914016270571E-01
5.0000000000000E-01 -1.2993231261965E+00 -2.7435215568057E-01
5.1000000000000E-01 -1.2644133283060E+00 -3.4002111888581E-01
5.2000000000000E-01 -1.2278207519729E+00 -4.0588812319366E-01
5.3000000000000E-01 -1.1896541610750E+00 -4.7168845116214E-01
5.4000000000000E-01 -1.1500249438602E+00 -5.3715257711079E-01
5.5000000000000E-01 -1.1090467704930E+00 -6.0200725811231E-01
5.6000000000000E-01 -1.0668351804344E+00 -6.6597685614609E-01
5.7000000000000E-01 -1.0235073301875E+00 -7.2878427321570E-01
5.8000000000000E-01 -9.7918149742226E-01 -7.9015257285429E-01
5.9000000000000E-01 -9.3397686710569E-01 -8.4980585771219E-01
6.0000000000000E-01 -8.8801304112477E-01 -9.0747095397030E-01
6.1000000000000E-01 -8.4140975175386E-01 -9.6287853642271E-01
6.2000000000000E-01 -7.9428653588310E-01 -1.0157643763834E+00
6.3000000000000E-01 -7.4676223543619E-01 -1.0658711582493E+00
6.4000000000000E-01 -6.9895483381724E-01 -1.1129492539570E+00
6.5000000000000E-01 -6.5098102554696E-01 -1.1567583467194E+00
6.6000000000000E-01 -6.0295580846901E-01 -1.1970690135855E+00
6.7000000000000E-01 -5.5499228806379E-01 -1.2336636006302E+00
6.8000000000000E-01 -5.0720137449445E-01 -1.2663374406327E+00
6.9000000000000E-01 -4.5969130316270E-01 -1.2949006941427E+00
7.0000000000000E-01 -4.1256748181340E-01 -1.3191790522032E+00
7.1000000000000E-01 -3.6593220247360E-01 -1.3390148889606E+00
7.2000000000000E-01 -3.1988436193781E-01 -1.3542683713847E+00
7.3000000000000E-01 -2.7451926789764E-01 -1.3648182430650E+00
7.4000000000000E-01 -2.2992823128648E-01 -1.3705633577563E+00
7.5000000000000E-01 -1.8619851450259E-01 -1.3714229009760E+00
7.6000000000000E-01 -1.4341309174790E-01 -1.3673372564300E+00
7.7000000000000E-01 -1.0165046262039E-01 -1.3582686457757E+00
7.8000000000000E-01 -6.0984489807517E-02 -1.3442016422745E+00
7.9000000000000E-01 -2.1484256146114E-02 -1.3251435718855E+00
8.0000000000000E-01  1.6786058609968E-02 -1.3011247973560E+00
8.1000000000000E-01  5.3767281066448E-02 -1.2721988815420E+00
8.2000000000000E-01  8.9405327353533E-02 -1.2384426268997E+00
8.3000000000000E-01  1.2365126611266E-01 -1.1999559888018E+00
8.4000000000000E-01  1.5646136132541E-01 -1.1568618610658E+00
8.5000000000000E-01  1.8779709508950E-01 -1.1093057328146E+00
8.6000000000000E-01  2.1762517052928E-01 -1.0574552165418E+00
8.7000000000000E-01  2.4591749510902E-01 -1.0014994480094E+00
8.8000000000000E-01  2.7265114469844E-01 -9.4164835938254E-01
8.9000000000000E-01  2.9780830882114E-01 -8.7813182780207E-01
9.0000000000000E-01  3.2137621760056E-01 -8.1119870242575E-01
9.1000000000000E-01  3.4334705100523E-01 -7.4111571383160E-01
9.2000000000000E-01  3.6371783108687E-01 -6.6816627059012E-01
9.3000000000000E-01  3.8249029800291E-01 -5.9264914876974E-01
9.4000000000000E-01  3.9967077071826E-01 -5.1487708114913E-01
9.5000000000000E-01  4.1526999339126E-01 -4.3517525395891E-01
9.6000000000000E-01  4.2930296856257E-01 -3.5387972004946E-01
9.7000000000000E-01  4.4178877406083E-01 -2.7133580384826E-01
9.8000000000000E-01  4.5275038192335E-01 -1.8789654344700E-01
9.9000000000000E-01  4.6221448338161E-01 -1.0392016835501E-01
1.0000000000000E+00  4.7021122494840E-01 -1.9768902165759E-02
1.0100000000000E+00  4.7677401463339E-01  6.4193095971851E-02
1.0200000000000E+00  4.8193929980681E-01  1.4760162509354E-01
1.0300000000000E+00  4.8574634154096E-01  2.3009433901492E-01
1.0400000000000E+00  4.8823706037565E-01  3.1131135622087E-01
1.0500000000000E+00  4.8945561467232E-01  3.9090087525037E-01
1.0600000000000E+00  4.8944829779643E-01  4.6851790336778E-01
1.0700000000000E+00  4.8826327864323E-01  5.4382692967334E-01
1.0800000000000E+00  4.8595039188629E-01  6.1650348665986E-01
1.0900000000000E+00  4.8256104506269E-01  6.8623438144301E-01
1.1000000000000E+00  4.7814749789758E-01  7.5272550506083E-01
1.1100000000000E+00  4.7276309321515E-01  8.1569751262952E-01
1.1200000000000E+00  4.6646192975478E-01  8.7488899774241E-01
1.1300000000000E+00  4.5929896081219E-01  9.3005481116599E-01
1.1400000000000E+00  4.5132891756820E-01  9.8097683858760E-01
1.1500000000000E+00  4.4260682204108E-01  1.0274573607151E+00
1.1600000000000E+00  4.3318776870071E-01  1.0693208768619E+00
1.1700000000000E+00  4.2312698130694E-01  1.1064132095647E+00
1.1800000000000E+00  4.1247846479397E-01  1.1386136648371E+00
1.1900000000000E+00  4.0129607732388E-01  1.1658238615436E+00
1.2000000000000E+00  3.8963344877559E-01  1.1879684258794E+00
1.2100000000000E+00  3.7754286016500E-01  1.2050045554678E+00
1.2200000000000E+00  3.6507553964129E-01  1.2169182454084E+00
1.2300000000000E+00  3.5228227163950E-01  1.2237187204298E+00
1.2400000000000E+00  3.3921266128504E-01  1.2254444244086E+00
1.2500000000000E+00  3.2591443380106E-01  1.2221675041610E+00
1.2600000000000E+00  3.1243485181452E-01  1.2139819208013E+00
1.2700000000000E+00  2.9881999806764E-01  1.2010090830293E+00
1.2800000000000E+00  2.8511368667495E-01  1.1834045512213E+00
1.2900000000000E+00  2.7135937521394E-01  1.1613434982413E+00
1.3000000000000E+00  2.5759909275528E-01  1.1350283741136E+00
1.3100000000000E+00  2.4387272196160E-01  1.1046918754562E+00
1.3200000000000E+00  2.3021996794001E-01  1.0705839795305E+00
1.3300000000000E+00  2.1667862216619E-01  1.0329823516827E+00
1.3400000000000E+00  2.0328496121251E-01  9.9218774343470E-01
1.3500000000000E+00  1.9007523270769E-01  9.4851667336624E-01
1.3600000000000E+00  1.7708319480359E-01  9.0231209899324E-01
1.3700000000000E+00  1.6434225134061E-01  8.5393176423924E-01
1.3800000000000E+00  1.5188517338980E-01  8.0375069156052E-01
1.3900000000000E+00  1.3974278195918E-01  7.5216229291760E-01
1.4000000000000E+00  1.2794622087948E-01  6.9957196418289E-01
1.4100000000000E+00  1.1652523624663E-01  6.4640232501674E-01
1.4200000000000E+00  1.0550816803076E-01  5.9307293214705E-01
1.4300000000000E+00  9.4923081553988E-02  5.4001558904658E-01
1.4400000000000E+00  8.4793919320455E-02  4.8762687556347E-01
1.4500000000000E+00  7.5145104019467E-02  4.3631533966892E-01
1.4600000000000E+00  6.5997513618591E-02  3.8645106590505E-01
1.4700000000000E+00  5.7371641596313E-02  3.3839860530392E-01
1.4800000000000E+00  4.9286412094692E-02  2.9250468427955E-01
1.4900000000000E+00  4.1759024770288E-02  2.4907737698421E-01
1.5000000000000E+00  3.4806678847535E-02  2.0843420541630E-01
1.5100000000000E+00  2.8444243420404E-02  1.7082372875125E-01
1.5200000000000E+00  2.2687090960975E-02  1.3651498115302E-01
1.5300000000000E+00  1.7548786936382E-02  1.0570699795919E-01
1.5400000000000E+00  1.3043045531946E-02  7.8602627459650E-02
1.5500000000000E+00  9.1825889083081E-03  5.5354718806015E-02
1.5600000000000E+00  5.9799134873362E-03  3.6093104123443E-02
1.5700000000000E+00  3.4470772568188E-03  2.0920722050460E-02
1.5800000000000E+00  1.5957463488425E-03  9.8925121362083E-03
1.5900000000000E+00  5.0779919376371E-04  3.4835543858319E-03
1.6000000000000E+00  1.0791946513295E-05  5.6396497558930E-04
1.6100000000000E+00 -9.8483516672970E-05 -3.0200820720536E-04
1.6200000000000E+00 -7.6777772126502E-06 -3.1730548282167E-05
1.6300000000000E+00  1.5502112494237E-06 -2.3480166496860E-05
1.6400000000000E+00  1.0705649672480E-08 -1.6215237559419E-07
1.6500000000000E+00  0.0000000000000E+00  0.0000000000000E+00
1.6600000000000E+00  0.0000000000000E+00  0.0000000000000E+00
1.6700000000000E+00  0.0000000000000E+00  0.0000000000000E+00
1.6800000000000E+00  0.0000000000000E+00  0.0000000000000E+00
1.6900000000000E+00  0.0000000000000E+00  0.0000000000000E+00
1.7000000000000E+00  0.0000000000000E+00  0.0000000000000E+00
1.7100000000000E+00  0.0000000000000E+00  0.0000000000000E+00
1.7200000000000E+00  0.0000000000000E+00  0.0000000000000E+00
1.7300000000000E+00  0.0000000000000E+00  0.0000000000000E+00
1.7400000000000E+00  0.0000000000000E+00  0.0000000000000E+00
1.7500000000000E+00  0.0000000000000E+00  0.0000000000000E+00
1.7600000000000E+00  0.0000000000000E+00  0.0000000000000E+00
1.7700000000000E+00  0.0000000000000E+00  0.0000000000000E+00
1.7800000000000E+00  0.0000000000000E+00  0.0000000000000E+00
1.7900000000000E+00  0.0000000000000E+00  0.0000000000000E+00
1.8000000000000E+00  0.0000000000000E+00  0.0000000000000E+00
1.8100000000000E+00  0.0000000000000E+00  0.0000000000000E+00
1.8200000000000E+00  0.0000000000000E+00  0.0000000000000E+00
1.8300000000000E+00  0.0000000000000E+00  0.0000000000000E+00
1.8400000000000E+00  0.0000000000000E+00  0.0000000000000E+00
1.8500000000000E+00  0.0000000000000E+00  0.0000000000000E+00
1.8600000000000E+00  0.0000000000000E+00  0.0000000000000E+00
1.8700000000000E+00  0.0000000000000E+00  0.0000000000000E+00
1.8800000000000E+00  0.0000000000000E+00  0.0000000000000E+00
1.8900000000000E+00  0.0000000000000E+00  0.0000000000000E+00
1.9000000000000E+00  0.0000000000000E+00  0.0000000000000E+00
1.9100000000000E+00  0.0000000000000E+00  0.0000000000000E+00
1.9200000000000E+00  0.0000000000000E+00  0.0000000000000E+00
1.9300000000000E+00  0.0000000000000E+00  0.0000000000000E+00
1.9400000000000E+00  0.0000000000000E+00  0.0000000000000E+00
1.9500000000000E+00  0.0000000000000E+00  0.0000000000000E+00
1.9600000000000E+00  0.0000000000000E+00  0.0000000000000E+00
1.9700000000000E+00  0.0000000000000E+00  0.0000000000000E+00
1.9800000000000E+00  0.0000000000000E+00  0.0000000000000E+00
1.9900000000000E+00  0.0000000000000E+00  0.0000000000000E+00
2.0000000000000E+00  0.0000000000000E+00  0.0000000000000E+00
2.0100000000000E+00  0.0000000000000E+00  0.0000000000000E+00
2.0200000000000E+00  0.0000000000000E+00  0.0000000000000E+00
2.0300000000000E+00  0.0000000000000E+00  0.0000000000000E+00
2.0400000000000E+00  0.0000000000000E+00  0.0000000000000E+00
2.0500000000000E+00  0.0000000000000E+00  0.0000000000000E+00
2.0600000000000E+00  0.0000000000000E+00  0.0000000000000E+00
2.0700000000000E+00  0.0000000000000E+00  0.0000000000000E+00
2.0800000000000E+00  0.0000000000000E+00  0.0000000000000E+00
2.0900000000000E+00  0.0000000000000E+00  0.0000000000000E+00
2.1000000000000E+00  0.0000000000000E+00  0.0000000000000E+00
2.1100000000000E+00  0.0000000000000E+00  0.0000000000000E+00
2.1200000000000E+00  0.0000000000000E+00  0.0000000000000E+00
2.1300000000000E+00  0.0000000000000E+00  0.0000000000000E+00
2.1400000000000E+00  0.0000000000000E+00  0.0000000000000E+00
2.1500000000000E+00  0.0000000000000E+00  0.0000000000000E+00
2.1600000000000E+00  0.0000000000000E+00  0.0000000000000E+00
2.1700000000000E+00  0.0000000000000E+00  0.0000000000000E+00
2.1800000000000E+00  0.0000000000000E+00  0.0000000000000E+00
2.1900000000000E+00  0.0000000000000E+00  0.0000000000000E+00
2.2000000000000E+00  0.0000000000000E+00  0.0000000000000E+00
2.2100000000000E+00  0.0000000000000E+00  0.0000000000000E+00
2.2200000000000E+00  0.0000000000000E+00  0.0000000000000E+00
2.2300000000000E+00  0.0000000000000E+00  0.0000000000000E+00
2.2400000000000E+00  0.0000000000000E+00  0.0000000000000E+00
2.2500000000000E+00  0.0000000000000E+00  0.0000000000000E+00
2.2600000000000E+00  0.0000000000000E+00  0.0000000000000E+00
2.2700000000000E+00  0.0000000000000E+00  0.0000000000000E+00
2.2800000000000E+00  0.0000000000000E+00  0.0000000000000E+00
2.2900000000000E+00  0.0000000000000E+00  0.0000000000000E+00
2.3000000000000E+00  0.0000000000000E+00  0.0000000000000E+00
2.3100000000000E+00  0.0000000000000E+00  0.0000000000000E+00
2.3200000000000E+00  0.0000000000000E+00  0.0000000000000E+00
2.3300000000000E+00  0.0000000000000E+00  0.0000000000000E+00
2.3400000000000E+00  0.0000000000000E+00  0.0000000000000E+00
2.3500000000000E+00  0.0000000000000E+00  0.0000000000000E+00
2.3600000000000E+00  0.0000000000000E+00  0.0000000000000E+00
2.3700000000000E+00  0.0000000000000E+00  0.0000000000000E+00
2.3800000000000E+00  0.0000000000000E+00  0.0000000000000E+00
2.3900000000000E+00  0.0000000000000E+00  0.0000000000000E+00
2.4000000000000E+00  0.0000000000000E+00  0.0000000000000E+00
2.4100000000000E+00  0.0000000000000E+00  0.0000000000000E+00
2.4200000000000E+00  0.0000000000000E+00  0.0000000000000E+00
2.4300000000000E+00  0.0000000000000E+00  0.0000000000000E+00
2.4400000000000E+00  0.0000000000000E+00  0.0000000000000E+00
2.4500000000000E+00  0.0000000000000E+00  0.0000000000000E+00
2.4600000000000E+00  0.0000000000000E+00  0.0000000000000E+00
2.4700000000000E+00  0.0000000000000E+00  0.0000000000000E+00
2.4800000000000E+00  0.0000000000000E+00  0.0000000000000E+00
2.4900000000000E+00  0.0000000000000E+00  0.0000000000000E+00
2.5000000000000E+00  0.0000000000000E+00  0.0000000000000E+00
2.5100000000000E+00  0.0000000000000E+00  0.0000000000000E+00
2.5200000000000E+00  0.0000000000000E+00  0.0000000000000E+00
2.5300000000000E+00  0.0000000000000E+00  0.0000000000000E+00
2.5400000000000E+00  0.0000000000000E+00  0.0000000000000E+00
2.5500000000000E+00  0.0000000000000E+00  0.0000000000000E+00
2.5600000000000E+00  0.0000000000000E+00  0.0000000000000E+00
2.5700000000000E+00  0.0000000000000E+00  0.0000000000000E+00
2.5800000000000E+00  0.0000000000000E+00  0.0000000000000E+00
2.5900000000000E+00  0.0000000000000E+00  0.0000000000000E+00
2.6000000000000E+00  0.0000000000000E+00  0.0000000000000E+00
2.6100000000000E+00  0.0000000000000E+00  0.0000000000000E+00
2.6200000000000E+00  0.0000000000000E+00  0.0000000000000E+00
2.6300000000000E+00  0.0000000000000E+00  0.0000000000000E+00
2.6400000000000E+00  0.0000000000000E+00  0.0000000000000E+00
2.6500000000000E+00  0.0000000000000E+00  0.0000000000000E+00
2.6600000000000E+00  0.0000000000000E+00  0.0000000000000E+00
2.6700000000000E+00  0.0000000000000E+00  0.0000000000000E+00
2.6800000000000E+00  0.0000000000000E+00  0.0000000000000E+00
2.6900000000000E+00  0.0000000000000E+00  0.0000000000000E+00
2.7000000000000E+00  0.0000000000000E+00  0.0000000000000E+00
2.7100000000000E+00  0.0000000000000E+00  0.0000000000000E+00
2.7200000000000E+00  0.0000000000000E+00  0.0000000000000E+00
2.7300000000000E+00  0.0000000000000E+00  0.0000000000000E+00
2.7400000000000E+00  0.0000000000000E+00  0.0000000000000E+00
2.7500000000000E+00  0.0000000000000E+00  0.0000000000000E+00
2.7600000000000E+00  0.0000000000000E+00  0.0000000000000E+00
2.7700000000000E+00  0.0000000000000E+00  0.0000000000000E+00
2.7800000000000E+00  0.0000000000000E+00  0.0000000000000E+00
2.7900000000000E+00  0.0000000000000E+00  0.0000000000000E+00
2.8000000000000E+00  0.0000000000000E+00  0.0000000000000E+00
2.8100000000000E+00  0.0000000000000E+00  0.0000000000000E+00
2.8200000000000E+00  0.0000000000000E+00  0.0000000000000E+00
2.8300000000000E+00  0.0000000000000E+00  0.0000000000000E+00
2.8400000000000E+00  0.0000000000000E+00  0.0000000000000E+00
2.8500000000000E+00  0.0000000000000E+00  0.0000000000000E+00
2.8600000000000E+00  0.0000000000000E+00  0.0000000000000E+00
2.8700000000000E+00  0.0000000000000E+00  0.0000000000000E+00
2.8800000000000E+00  0.0000000000000E+00  0.0000000000000E+00
2.8900000000000E+00  0.0000000000000E+00  0.0000000000000E+00
2.9000000000000E+00  0.0000000000000E+00  0.0000000000000E+00
2.9100000000000E+00  0.0000000000000E+00  0.0000000000000E+00
2.9200000000000E+00  0.0000000000000E+00  0.0000000000000E+00
2.9300000000000E+00  0.0000000000000E+00  0.0000000000000E+00
2.9400000000000E+00  0.0000000000000E+00  0.0000000000000E+00
2.9500000000000E+00  0.0000000000000E+00  0.0000000000000E+00
2.9600000000000E+00  0.0000000000000E+00  0.0000000000000E+00
2.9700000000000E+00  0.0000000000000E+00  0.0000000000000E+00
2.9800000000000E+00  0.0000000000000E+00  0.0000000000000E+00
2.9900000000000E+00  0.0000000000000E+00  0.0000000000000E+00
3.0000000000000E+00  0.0000000000000E+00  0.0000000000000E+00
3.0100000000000E+00  0.0000000000000E+00  0.0000000000000E+00
3.0200000000000E+00  0.0000000000000E+00  0.0000000000000E+00
3.0300000000000E+00  0.0000000000000E+00  0.0000000000000E+00
3.0400000000000E+00  0.0000000000000E+00  0.0000000000000E+00
3.0500000000000E+00  0.0000000000000E+00  0.0000000000000E+00
3.0600000000000E+00  0.0000000000000E+00  0.0000000000000E+00
3.0700000000000E+00  0.0000000000000E+00  0.0000000000000E+00
3.0800000000000E+00  0.0000000000000E+00  0.0000000000000E+00
3.0900000000000E+00  0.0000000000000E+00  0.0000000000000E+00
3.1000000000000E+00  0.0000000000000E+00  0.0000000000000E+00
3.1100000000000E+00  0.0000000000000E+00  0.0000000000000E+00
3.1200000000000E+00  0.0000000000000E+00  0.0000000000000E+00
3.1300000000000E+00  0.0000000000000E+00  0.0000000000000E+00
3.1400000000000E+00  0.0000000000000E+00  0.0000000000000E+00
3.1500000000000E+00  0.0000000000000E+00  0.0000000000000E+00
3.1600000000000E+00  0.0000000000000E+00  0.0000000000000E+00
3.1700000000000E+00  0.0000000000000E+00  0.0000000000000E+00
3.1800000000000E+00  0.0000000000000E+00  0.0000000000000E+00
3.1900000000000E+00  0.0000000000000E+00  0.0000000000000E+00
3.2000000000000E+00  0.0000000000000E+00  0.0000000000000E+00
3.2100000000000E+00  0.0000000000000E+00  0.0000000000000E+00
3.2200000000000E+00  0.0000000000000E+00  0.0000000000000E+00
3.2300000000000E+00  0.0000000000000E+00  0.0000000000000E+00
3.2400000000000E+00  0.0000000000000E+00  0.0000000000000E+00
3.2500000000000E+00  0.0000000000000E+00  0.0000000000000E+00
3.2600000000000E+00  0.0000000000000E+00  0.0000000000000E+00
3.2700000000000E+00  0.0000000000000E+00  0.0000000000000E+00
3.2800000000000E+00  0.0000000000000E+00  0.0000000000000E+00
3.2900000000000E+00  0.0000000000000E+00  0.0000000000000E+00
3.3000000000000E+00  0.0000000000000E+00  0.0000000000000E+00
3.3100000000000E+00  0.0000000000000E+00  0.0000000000000E+00
3.3200000000000E+00  0.0000000000000E+00  0.0000000000000E+00
3.3300000000000E+00  0.0000000000000E+00  0.0000000000000E+00
3.3400000000000E+00  0.0000000000000E+00  0.0000000000000E+00
3.3500000000000E+00  0.0000000000000E+00  0.0000000000000E+00
3.3600000000000E+00  0.0000000000000E+00  0.0000000000000E+00
3.3700000000000E+00  0.0000000000000E+00  0.0000000000000E+00
3.3800000000000E+00  0.0000000000000E+00  0.0000000000000E+00
3.3900000000000E+00  0.0000000000000E+00  0.0000000000000E+00
3.4000000000000E+00  0.0000000000000E+00  0.0000000000000E+00
3.4100000000000E+00  0.0000000000000E+00  0.0000000000000E+00
3.4200000000000E+00  0.0000000000000E+00  0.0000000000000E+00
3.4300000000000E+00  0.0000000000000E+00  0.0000000000000E+00
3.4400000000000E+00  0.0000000000000E+00  0.0000000000000E+00
3.4500000000000E+00  0.0000000000000E+00  0.0000000000000E+00
3.4600000000000E+00  0.0000000000000E+00  0.0000000000000E+00
3.4700000000000E+00  0.0000000000000E+00  0.0000000000000E+00
3.4800000000000E+00  0.0000000000000E+00  0.0000000000000E+00
3.4900000000000E+00  0.0000000000000E+00  0.0000000000000E+00
3.5000000000000E+00  0.0000000000000E+00  0.0000000000000E+00
3.5100000000000E+00  0.0000000000000E+00  0.0000000000000E+00
3.5200000000000E+00  0.0000000000000E+00  0.0000000000000E+00
3.5300000000000E+00  0.0000000000000E+00  0.0000000000000E+00
3.5400000000000E+00  0.0000000000000E+00  0.0000000000000E+00
3.5500000000000E+00  0.0000000000000E+00  0.0000000000000E+00
3.5600000000000E+00  0.0000000000000E+00  0.0000000000000E+00
3.5700000000000E+00  0.0000000000000E+00  0.0000000000000E+00
3.5800000000000E+00  0.0000000000000E+00  0.0000000000000E+00
3.5900000000000E+00  0.0000000000000E+00  0.0000000000000E+00
3.6000000000000E+00  0.0000000000000E+00  0.0000000000000E+00
3.6100000000000E+00  0.0000000000000E+00  0.0000000000000E+00
3.6200000000000E+00  0.0000000000000E+00  0.0000000000000E+00
3.6300000000000E+00  0.0000000000000E+00  0.0000000000000E+00
3.6400000000000E+00  0.0000000000000E+00  0.0000000000000E+00
3.6500000000000E+00  0.0000000000000E+00  0.0000000000000E+00
3.6600000000000E+00  0.0000000000000E+00  0.0000000000000E+00
3.6700000000000E+00  0.0000000000000E+00  0.0000000000000E+00
3.6800000000000E+00  0.0000000000000E+00  0.0000000000000E+00
3.6900000000000E+00  0.0000000000000E+00  0.0000000000000E+00
3.7000000000000E+00  0.0000000000000E+00  0.0000000000000E+00
3.7100000000000E+00  0.0000000000000E+00  0.0000000000000E+00
3.7200000000000E+00  0.0000000000000E+00  0.0000000000000E+00
3.7300000000000E+00  0.0000000000000E+00  0.0000000000000E+00
3.7400000000000E+00  0.0000000000000E+00  0.0000000000000E+00
3.7500000000000E+00  0.0000000000000E+00  0.0000000000000E+00
3.7600000000000E+00  0.0000000000000E+00  0.0000000000000E+00
3.7700000000000E+00  0.0000000000000E+00  0.0000000000000E+00
3.7800000000000E+00  0.0000000000000E+00  0.0000000000000E+00
3.7900000000000E+00  0.0000000000000E+00  0.0000000000000E+00
3.8000000000000E+00  0.0000000000000E+00  0.0000000000000E+00
3.8100000000000E+00  0.0000000000000E+00  0.0000000000000E+00
3.8200000000000E+00  0.0000000000000E+00  0.0000000000000E+00
3.8300000000000E+00  0.0000000000000E+00  0.0000000000000E+00
3.8400000000000E+00  0.0000000000000E+00  0.0000000000000E+00
3.8500000000000E+00  0.0000000000000E+00  0.0000000000000E+00
3.8600000000000E+00  0.0000000000000E+00  0.0000000000000E+00
3.8700000000000E+00  0.0000000000000E+00  0.0000000000000E+00
3.8800000000000E+00  0.0000000000000E+00  0.0000000000000E+00
3.8900000000000E+00  0.0000000000000E+00  0.0000000000000E+00
3.9000000000000E+00  0.0000000000000E+00  0.0000000000000E+00
3.9100000000000E+00  0.0000000000000E+00  0.0000000000000E+00
3.9200000000000E+00  0.0000000000000E+00  0.0000000000000E+00
3.9300000000000E+00  0.0000000000000E+00  0.0000000000000E+00
3.9400000000000E+00  0.0000000000000E+00  0.0000000000000E+00
3.9500000000000E+00  0.0000000000000E+00  0.0000000000000E+00
3.9600000000000E+00  0.0000000000000E+00  0.0000000000000E+00
3.9700000000000E+00  0.0000000000000E+00  0.0000000000000E+00
3.9800000000000E+00  0.0000000000000E+00  0.0000000000000E+00
3.9900000000000E+00  0.0000000000000E+00  0.0000000000000E+00
#l=1
0.0000000000000E+00  0.0000000000000E+00  0.0000000000000E+00
1.0000000000000E-02  1.6961477402990E-03  6.1313218969352E-04
2.0000000000000E-02  6.7780909793374E-03  2.4487686377255E-03
3.0000000000000E-02  1.5226348499616E-02  5.4956338593130E-03
4.0000000000000E-02  2.7008514048254E-02  9.7349517962823E-03
5.0000000000000E-02  4.2079350056964E-02  1.5140470983680E-02
6.0000000000000E-02  6.0380918956926E-02  2.1678500856744E-02
7.0000000000000E-02  8.1842752186779E-02  2.9307960250513E-02
8.0000000000000E-02  1.0638205700699E-01  3.7980439413057E-02
9.0000000000000E-02  1.3390396123964E-01  4.7640277100183E-02
1.0000000000000E-01  1.6430179604887E-01  5.8224654538643E-02
1.1000000000000E-01  1.9745741685707E-01  6.9663708231789E-02
1.2000000000000E-01  2.3324156246263E-01  8.1880663734470E-02
1.3000000000000E-01  2.7151425237194E-01  9.4791992634567E-02
1.4000000000000E-01  3.1212522231146E-01  1.0830759505924E-01
1.5000000000000E-01  3.5491439776449E-01  1.2233101002910E-01
1.6000000000000E-01  3.9971240534955E-01  1.3675965600665E-01
1.7000000000000E-01  4.4634112162033E-01  1.5148510384439E-01
1.8000000000000E-01  4.9461425889029E-01  1.6639338432480E-01
1.9000000000000E-01  5.4433798743684E-01  1.8136533227129E-01
2.0000000000000E-01  5.9531159315341E-01  1.9627696889601E-01
2.1000000000000E-01  6.4732816984791E-01  2.1099992404026E-01
2.2000000000000E-01  7.0017534480295E-01  2.2540189936583E-01
2.3000000000000E-01  7.5363603639528E-01  2.3934717354802E-01
2.4000000000000E-01  8.0748924187809E-01  2.5269714972260E-01
2.5000000000000E-01  8.6151085342733E-01  2.6531094518377E-01
2.6000000000000E-01  9.1547450107050E-01  2.7704602379358E-01
2.7000000000000E-01  9.6915241865960E-01  2.8775886864720E-01
2.8000000000000E-01  1.0223163314174E+00  2.9730569485856E-01
2.9000000000000E-01  1.0747383619231E+00  3.0554320038505E-01
3.0000000000000E-01  1.1261919511055E+00  3.1232935215389E-01
3.1000000000000E-01  1.1764527909502E+00  3.1752420467147E-01
3.2000000000000E-01  1.2252997651589E+00  3.2099074748751E-01
3.3000000000000E-01  1.2725158924934E+00  3.2259577519509E-01
3.4000000000000E-01  1.3178892753070E+00  3.2221078601625E-01
3.5000000000000E-01  1.3612140345731E+00  3.1971288099597E-01
3.6000000000000E-01  1.4022912468214E+00  3.1498569071626E-01
3.7000000000000E-01  1.4409298569499E+00  3.0792028736301E-01
3.8000000000000E-01  1.4769475812878E+00  2.9841610977216E-01
3.9000000000000E-01  1.5101717825124E+00  2.8638187039976E-01
4.0000000000000E-01  1.5404403167669E+00  2.7173644609377E-01
4.1000000000000E-01  1.5676023485543E+00  2.5440974766878E-01
4.2000000000000E-01  1.5915191266387E+00  2.3434355706044E-01
4.3000000000000E-01  1.6120647164199E+00  2.1149232539755E-01
4.4000000000000E-01  1.6291266838391E+00  1.8582392433865E-01
4.5000000000000E-01  1.6426067259348E+00  1.5732034297232E-01
4.6000000000000E-01  1.6524212433049E+00  1.2597832261385E-01
4.7000000000000E-01  1.6585018499803E+00  9.1809922013246E-02
4.8000000000000E-01  1.6607958167813E+00  5.4843005980675E-02
4.9000000000000E-01  1.6592664530327E+00  1.5121656454040E-02
5.0000000000000E-01  1.6538933820529E+00 -2.7293523768442E-02
5.1000000000000E-01  1.6446727772847E+00 -7.2325186562269E-02
5.2000000000000E-01  1.6316175209888E+00 -1.1987910203579E-01
5.3000000000000E-01  1.6147572108767E+00 -1.6984418550874E-01
5.4000000000000E-01  1.5941381702433E+00 -2.2209256814025E-01
5.5000000000000E-01  1.5698233455282E+00 -2.7647979192538E-01
5.6000000000000E-01  1.5418920211005E+00 -3.3284521943005E-01