# 
#  This pseudopotential file has been produced using the code
#  ONCVPSP (Optimized Norm-Conservinng Vanderbilt PSeudopotential)
#  scalar-relativistic version 2.1.1, 03/26/2014 by D. R. Hamann
#  as distributed by Mat-Sim Research at www.mat-simresearch.com.
#  Reference:
#    D. R. Hamann, Phys. Rev. B 88, 085117 (2013)
#    DOI:https://doi.org/10.1103/PhysRevB.88.085117
#
#
#  Pseudopotential generation was done by M. Schlipf and F. Gygi using
#  the input parameters obtained from their optimization algorithm.
#  Reference:
#    M. Schlipf and F. Gygi, Computer Physics Communications (2015)
#    DOI: 10.1016/j.cpc.2015.05.011
#    http://dx.doi.org/10.1016/j.cpc.2015.05.011
#    http://www.quantum-simulation.org
#  License:
#  This work is licensed under the Creative Commons Attribution-ShareAlike
#  4.0 International License. To view a copy of this license, visit
#  http://creativecommons.org/licenses/by-sa/4.0/ or send a letter to
#  Creative Commons, PO Box 1866, Mountain View, CA 94042, USA.
#
#
#  Format:
#    The format of this file has been adapted to match MGmol pseudopotential
#    parser using the script convertONCVPSP_SG15.py
# 
#
SG15_Ni_ONCV_PBE-1
#color
Silver
#radii of balls and covalent bonds
0.8  1.8
# Nlcc flag
0
# Atomic number
28
# Atomic mass
58.69300079
# Number of valence electrons
18
#Gaussian core charge parameter rc
1.0
# Number of potentials
4
# l-value for state which is local, then type of potential format
3 3
# Local potential radius
3.2
# Non-local potential radius
3.2
# number of points in radial grid
602
# VANDERBILT-KLEINMAN-BYLANDER PROJECTORs
# l, nproj
0 2    -0.3450912520E+01    -0.2085384672E+00 
1 2    -0.5459979863E+01    -0.1873582459E+01 
2 2    -0.7433942336E+01    -0.2736590339E+01 
# l= 0
0.0 -4.219322343 3.88484475 
0.01 -4.2185586607 3.8832382367 
0.02 -4.2162640352 3.8784066682 
0.03 -4.2124420519 3.8703621079 
0.04 -4.2070962962 3.8591166193 
0.05 -4.2002317809 3.8446870563 
0.06 -4.1918549394 3.8270950287 
0.07 -4.1819736172 3.8063668577 
0.08 -4.1705970607 3.7825335216 
0.09 -4.1577359057 3.7556305922 
0.1 -4.1434021621 3.7256981618 
0.11 -4.1276091985 3.6927807613 
0.12 -4.1103717234 3.6569272688 
0.13 -4.0917057665 3.6181908099 
0.14 -4.0716286559 3.5766286496 
0.15 -4.0501589962 3.5323020758 
0.16 -4.0273166423 3.4852762751 
0.17 -4.0031226737 3.4356202007 
0.18 -3.9775993662 3.3834064339 
0.19 -3.9507701619 3.328711038 
0.2 -3.9226596383 3.2716134059 
0.21 -3.8932934754 3.2121961017 
0.22 -3.8626984218 3.1505446965 
0.23 -3.8309022595 3.0867475992 
0.24 -3.7979337668 3.0208958823 
0.25 -3.7638226805 2.9530831024 
0.26 -3.7285996572 2.8834051193 
0.27 -3.6922962328 2.8119599082 
0.28 -3.6549447812 2.7388473708 
0.29 -3.6165784724 2.6641691442 
0.3 -3.5772312293 2.5880284063 
0.31 -3.5369376839 2.5105296807 
0.32 -3.4957331326 2.4317786396 
0.33 -3.4536534897 2.3518819051 
0.34 -3.4107352442 2.2709468548 
0.35 -3.3670154098 2.18908142 
0.36 -3.3225314809 2.1063938919 
0.37 -3.2773213826 2.0229927246 
0.38 -3.2314234248 1.9389863407 
0.39 -3.1848762538 1.8544829394 
0.4 -3.1377188033 1.7695903065 
0.41 -3.0899902468 1.6844156279 
0.42 -3.0417299491 1.5990653054 
0.43 -2.9929774181 1.5136447767 
0.44 -2.9437722563 1.4282583394 
0.45 -2.8941541132 1.3430089788 
0.46 -2.8441626375 1.257998201 
0.47 -2.7938374292 1.1733258705 
0.48 -2.7432179931 1.0890900538 
0.49 -2.6923436932 1.0053868804 
0.5 -2.6412537041 0.92231036708 
0.51 -2.5899869673 0.83995230236 
0.52 -2.5385821488 0.7584021297 
0.53 -2.4870775899 0.677746776 
0.54 -2.4355112671 0.59807056445 
0.55 -2.3839207538 0.51945512091 
0.56 -2.3323431663 0.44197919297 
0.57 -2.280815144 0.36571867508 
0.58 -2.2293727833 0.29074636392 
0.59 -2.1780516288 0.21713204053 
0.6 -2.1268866088 0.14494224637 
0.61 -2.0759120177 0.074240312214 
0.62 -2.0251614813 0.0050862965203 
0.63 -1.9746679009 -0.062463174013 
0.64 -1.9244634551 -0.12835479157 
0.65 -1.8745795482 -0.19253870234 
0.66 -1.8250467716 -0.25496857063 
0.67 -1.7758948992 -0.31560150579 
0.68 -1.727152865 -0.37439806156 
0.69 -1.6788486966 -0.43132241291 
0.7 -1.6310095288 -0.48634220449 
0.71 -1.5836615746 -0.53942857596 
0.72 -1.5368301036 -0.59055615407 
0.73 -1.4905394346 -0.63970299546 
0.74 -1.4448128774 -0.68685070203 
0.75 -1.3996727598 -0.73198423943 
0.76 -1.3551404001 -0.775091947 
0.77 -1.3112360945 -0.81616549397 
0.78 -1.2679791068 -0.85519982972 
0.79 -1.2253876591 -0.89219312859 
0.8 -1.1834789248 -0.92714672929 
0.81 -1.1422690223 -0.96006506935 
0.82 -1.1017730115 -0.99095561478 
0.83 -1.0620048912 -1.0198287853 
0.84 -1.0229775981 -1.0466978756 
0.85 -0.98470300788 -1.0715789722 
0.86 -0.94719193742 -1.0944908673 
0.87 -0.9104541486 -1.1154549688 
0.88 -0.8744983538 -1.1344952078 
0.89 -0.83933222275 -1.1516379423 
0.9 -0.80496239098 -1.1669118596 
0.91 -0.77139446961 -1.1803478751 
0.92 -0.73863305665 -1.1919790297 
0.93 -0.70668174973 -1.2018403853 
0.94 -0.67554316018 -1.2099689186 
0.95 -0.64521892849 -1.2164034129 
0.96 -0.6157097412 -1.22118435 
0.97 -0.58701535049 -1.2243537981 
0.98 -0.55913462509 -1.2259552575 
0.99 -0.53206546576 -1.2260337069 
1.0 -0.50580492971 -1.2246353306 
1.01 -0.48034922087 -1.2218074602 
1.02 -0.45569371381 -1.2175984647 
1.03 -0.43183297879 -1.21205764 
1.04 -0.40876085343 -1.2052350641 
1.05 -0.38647033036 -1.1971816162 
1.06 -0.36495370255 -1.1879487437 
1.07 -0.34420257216 -1.1775883832 
1.08 -0.32420787246 -1.1661528636 
1.09 -0.30495995675 -1.1536948006 
1.1 -0.28644842851 -1.1402670442 
1.11 -0.26866237073 -1.1259225002 
1.12 -0.25159031734 -1.110714066 
1.13 -0.23522033408 -1.0946945759 
1.14 -0.21953988807 -1.0779166398 
1.15 -0.20453601449 -1.0604325644 
1.16 -0.19019534059 -1.0422942928 
1.17 -0.17650414777 -1.0235534232 
1.18 -0.16344821998 -1.0042608171 
1.19 -0.15101307424 -0.98446677439 
1.2 -0.13918395833 -0.96422101317 
1.21 -0.127945795 -0.94357238351 
1.22 -0.11728325338 -0.92256877054 
1.23 -0.10718083609 -0.90125731545 
1.24 -0.097622853243 -0.87968424171 
1.25 -0.088593426195 -0.85789437294 
1.26 -0.080076598601 -0.83593170019 
1.27 -0.072056312259 -0.81383921728 
1.28 -0.064516428195 -0.79165815254 
1.29 -0.057440797898 -0.76942889655 
1.3 -0.05081324545 -0.7471906317 
1.31 -0.044617637525 -0.72498057607 
1.32 -0.03883787239 -0.70283519787 
1.33 -0.033457915743 -0.68078930161 
1.34 -0.028461876937 -0.65887581825 
1.35 -0.023833906496 -0.63712708937 
1.36 -0.019558381971 -0.61557299919 
1.37 -0.015619837582 -0.59424218824 
1.38 -0.012002897473 -0.57316239366 
1.39 -0.0086925788696 -0.55235846864 
1.4 -0.0056739524525 -0.53185494596 
1.41 -0.0029324387945 -0.51167401858 
1.42 -0.00045375852697 -0.49183620209 
1.43 0.0017762827488 -0.47236143102 
1.44 0.0037712609476 -0.45326638071 
1.45 0.0055447675949 -0.43456782962 
1.46 0.0071098148302 -0.41627969848 
1.47 0.0084791807622 -0.39841491977 
1.48 0.0096653697719 -0.3809851314 
1.49 0.01068025575 -0.36399939021 
1.5 0.01153580375 -0.34746706186 
1.51 0.012243014804 -0.33139378383 
1.52 0.012813074351 -0.3157859085 
1.53 0.013256310199 -0.30064666359 
1.54 0.01358298054 -0.28597910615 
1.55 0.013802776096 -0.27178434083 
1.56 0.013924994536 -0.25806230778 
1.57 0.013958676685 -0.24481208658 
1.58 0.01391216263 -0.23203080018 
1.59 0.013793827048 -0.21971559575 
1.6 0.013611073064 -0.20786112313 
1.61 0.013371593447 -0.196462702 
1.62 0.013081888384 -0.18551287983 
1.63 0.012748956489 -0.17500527713 
1.64 0.012378456812 -0.1649307554 
1.65 0.011976633734 -0.15528129984 
1.66 0.011548407247 -0.14604655489 
1.67 0.011099257744 -0.13721707648 
1.68 0.010633403996 -0.12878161103 
1.69 0.010155605093 -0.12072959464 
1.7 0.0096693963144 -0.11304917739 
1.71 0.0091788714163 -0.10572898854 
1.72 0.0086869062877 -0.098756923555 
1.73 0.0081969872492 -0.092121093151 
1.74 0.0077113784995 -0.085809515339 
1.75 0.0072329690719 -0.079810062806 
1.76 0.0067635163625 -0.074111234321 
1.77 0.0063052997741 -0.068701028074 
1.78 0.005859674243 -0.063568682975 
1.79 0.0054283325723 -0.058702763843 
1.8 0.0050122955975 -0.054093435439 
1.81 0.0046127123069 -0.049730340285 
1.82 0.0042303299363 -0.045604670297 
1.83 0.003865808006 -0.041707727745 
1.84 0.0035196688854 -0.038031745203 
1.85 0.0031921513652 -0.034570367012 
1.86 0.0028835870843 -0.031316816864 
1.87 0.0025938713963 -0.028267465279 
1.88 0.0023231825355 -0.025417483245 
1.89 0.0020711299801 -0.022762676866 
1.9 0.0018376302783 -0.020299490064 
1.91 0.0016221677301 -0.018021853472 
1.92 0.0014243228842 -0.015924302985 
1.93 0.0012435291809 -0.01400041347 
1.94 0.0010790997566 -0.01224298694 
1.95 0.00093041249698 -0.010645239759 
1.96 0.00079662164551 -0.0091990023419 
1.97 0.00067701018122 -0.0078968821223 
1.98 0.0005706951466 -0.0067305238582 
1.99 0.00047683973544 -0.0056918179046 
2.0 0.00039458378269 -0.0047725702574 
2.01 0.00032304494281 -0.0039644775069 
2.02 0.00026134779838 -0.0032592431992 
2.03 0.00020865294991 -0.0026489520641 
2.04 0.00016407159496 -0.002125263812 
2.05 0.00012681861604 -0.0016806630548 
2.06 9.6081939595e-05 -0.0013074322632 
2.07 7.1066802139e-05 -0.00099797840537 
2.08 5.111417735e-05 -0.00074572780654 
2.09 3.5428131796e-05 -0.00054309351735 
2.1 2.3457376779e-05 -0.00038428259727 
2.11 1.4567254079e-05 -0.0002628949876 
2.12 8.1662998925e-06 -0.00017284196556 
2.13 3.8488241543e-06 -0.00010937991447 
2.14 1.0293302944e-06 -6.6469504173e-05 
2.15 -5.8735510042e-07 -4.0156153103e-05 
2.16 -1.4047140505e-06 -2.6069465411e-05 
2.17 -1.8147268122e-06 -1.9751090435e-05 
2.18 -1.7584243659e-06 -1.7724322539e-05 
2.19 -1.2811205694e-06 -1.2409336756e-05 
2.2 -6.0038953648e-07 -5.3794809681e-06 
2.21 1.4302979173e-08 1.4924549965e-07 
2.22 1.093001458e-07 1.1405004982e-06 
2.23 5.9545544277e-08 6.2133240915e-07 
2.24 0.0 0.0 
2.25 0.0 0.0 
2.26 0.0 0.0 
2.27 0.0 0.0 
2.28 0.0 0.0 
2.29 0.0 0.0 
2.3 0.0 0.0 
2.31 0.0 0.0 
2.32 0.0 0.0 
2.33 0.0 0.0 
2.34 0.0 0.0 
2.35 0.0 0.0 
2.36 0.0 0.0 
2.37 0.0 0.0 
2.38 0.0 0.0 
2.39 0.0 0.0 
2.4 0.0 0.0 
2.41 0.0 0.0 
2.42 0.0 0.0 
2.43 0.0 0.0 
2.44 0.0 0.0 
2.45 0.0 0.0 
2.46 0.0 0.0 
2.47 0.0 0.0 
2.48 0.0 0.0 
2.49 0.0 0.0 
2.5 0.0 0.0 
2.51 0.0 0.0 
2.52 0.0 0.0 
2.53 0.0 0.0 
2.54 0.0 0.0 
2.55 0.0 0.0 
2.56 0.0 0.0 
2.57 0.0 0.0 
2.58 0.0 0.0 
2.59 0.0 0.0 
2.6 0.0 0.0 
2.61 0.0 0.0 
2.62 0.0 0.0 
2.63 0.0 0.0 
2.64 0.0 0.0 
2.65 0.0 0.0 
2.66 0.0 0.0 
2.67 0.0 0.0 
2.68 0.0 0.0 
2.69 0.0 0.0 
2.7 0.0 0.0 
2.71 0.0 0.0 
2.72 0.0 0.0 
2.73 0.0 0.0 
2.74 0.0 0.0 
2.75 0.0 0.0 
2.76 0.0 0.0 
2.77 0.0 0.0 
2.78 0.0 0.0 
2.79 0.0 0.0 
2.8 0.0 0.0 
2.81 0.0 0.0 
2.82 0.0 0.0 
2.83 0.0 0.0 
2.84 0.0 0.0 
2.85 0.0 0.0 
2.86 0.0 0.0 
2.87 0.0 0.0 
2.88 0.0 0.0 
2.89 0.0 0.0 
2.9 0.0 0.0 
2.91 0.0 0.0 
2.92 0.0 0.0 
2.93 0.0 0.0 
2.94 0.0 0.0 
2.95 0.0 0.0 
2.96 0.0 0.0 
2.97 0.0 0.0 
2.98 0.0 0.0 
2.99 0.0 0.0 
3.0 0.0 0.0 
3.01 0.0 0.0 
3.02 0.0 0.0 
3.03 0.0 0.0 
3.04 0.0 0.0 
3.05 0.0 0.0 
3.06 0.0 0.0 
3.07 0.0 0.0 
3.08 0.0 0.0 
3.09 0.0 0.0 
3.1 0.0 0.0 
3.11 0.0 0.0 
3.12 0.0 0.0 
3.13 0.0 0.0 
3.14 0.0 0.0 
3.15 0.0 0.0 
3.16 0.0 0.0 
3.17 0.0 0.0 
3.18 0.0 0.0 
3.19 0.0 0.0 
3.2 0.0 0.0 
3.21 0.0 0.0 
3.22 0.0 0.0 
3.23 0.0 0.0 
3.24 0.0 0.0 
3.25 0.0 0.0 
3.26 0.0 0.0 
3.27 0.0 0.0 
3.28 0.0 0.0 
3.29 0.0 0.0 
3.3 0.0 0.0 
3.31 0.0 0.0 
3.32 0.0 0.0 
3.33 0.0 0.0 
3.34 0.0 0.0 
3.35 0.0 0.0 
3.36 0.0 0.0 
3.37 0.0 0.0 
3.38 0.0 0.0 
3.39 0.0 0.0 
3.4 0.0 0.0 
3.41 0.0 0.0 
3.42 0.0 0.0 
3.43 0.0 0.0 
3.44 0.0 0.0 
3.45 0.0 0.0 
3.46 0.0 0.0 
3.47 0.0 0.0 
3.48 0.0 0.0 
3.49 0.0 0.0 
3.5 0.0 0.0 
3.51 0.0 0.0 
3.52 0.0 0.0 
3.53 0.0 0.0 
3.54 0.0 0.0 
3.55 0.0 0.0 
3.56 0.0 0.0 
3.57 0.0 0.0 
3.58 0.0 0.0 
3.59 0.0 0.0 
3.6 0.0 0.0 
3.61 0.0 0.0 
3.62 0.0 0.0 
3.63 0.0 0.0 
3.64 0.0 0.0 
3.65 0.0 0.0 
3.66 0.0 0.0 
3.67 0.0 0.0 
3.68 0.0 0.0 
3.69 0.0 0.0 
3.7 0.0 0.0 
3.71 0.0 0.0 
3.72 0.0 0.0 
3.73 0.0 0.0 
3.74 0.0 0.0 
3.75 0.0 0.0 
3.76 0.0 0.0 
3.77 0.0 0.0 
3.78 0.0 0.0 
3.79 0.0 0.0 
3.8 0.0 0.0 
3.81 0.0 0.0 
3.82 0.0 0.0 
3.83 0.0 0.0 
3.84 0.0 0.0 
3.85 0.0 0.0 
3.86 0.0 0.0 
3.87 0.0 0.0 
3.88 0.0 0.0 
3.89 0.0 0.0 
3.9 0.0 0.0 
3.91 0.0 0.0 
3.92 0.0 0.0 
3.93 0.0 0.0 
3.94 0.0 0.0 
3.95 0.0 0.0 
3.96 0.0 0.0 
3.97 0.0 0.0 
3.98 0.0 0.0 
3.99 0.0 0.0 
4.0 0.0 0.0 
4.01 0.0 0.0 
4.02 0.0 0.0 
4.03 0.0 0.0 
4.04 0.0 0.0 
4.05 0.0 0.0 
4.06 0.0 0.0 
4.07 0.0 0.0 
4.08 0.0 0.0 
4.09 0.0 0.0 
4.1 0.0 0.0 
4.11 0.0 0.0 
4.12 0.0 0.0 
4.13 0.0 0.0 
4.14 0.0 0.0 
4.15 0.0 0.0 
4.16 0.0 0.0 
4.17 0.0 0.0 
4.18 0.0 0.0 
4.19 0.0 0.0 
4.2 0.0 0.0 
4.21 0.0 0.0 
4.22 0.0 0.0 
4.23 0.0 0.0 
4.24 0.0 0.0 
4.25 0.0 0.0 
4.26 0.0 0.0 
4.27 0.0 0.0 
4.28 0.0 0.0 
4.29 0.0 0.0 
4.3 0.0 0.0 
4.31 0.0 0.0 
4.32 0.0 0.0 
4.33 0.0 0.0 
4.34 0.0 0.0 
4.35 0.0 0.0 
4.36 0.0 0.0 
4.37 0.0 0.0 
4.38 0.0 0.0 
4.39 0.0 0.0 
4.4 0.0 0.0 
4.41 0.0 0.0 
4.42 0.0 0.0 
4.43 0.0 0.0 
4.44 0.0 0.0 
4.45 0.0 0.0 
4.46 0.0 0.0 
4.47 0.0 0.0 
4.48 0.0 0.0 
4.49 0.0 0.0 
4.5 0.0 0.0 
4.51 0.0 0.0 
4.52 0.0 0.0 
4.53 0.0 0.0 
4.54 0.0 0.0 
4.55 0.0 0.0 
4.56 0.0 0.0 
4.57 0.0 0.0 
4.58 0.0 0.0 
4.59 0.0 0.0 
4.6 0.0 0.0 
4.61 0.0 0.0 
4.62 0.0 0.0 
4.63 0.0 0.0 
4.64 0.0 0.0 
4.65 0.0 0.0 
4.66 0.0 0.0 
4.67 0.0 0.0 
4.68 0.0 0.0 
4.69 0.0 0.0 
4.7 0.0 0.0 
4.71 0.0 0.0 
4.72 0.0 0.0 
4.73 0.0 0.0 
4.74 0.0 0.0 
4.75 0.0 0.0 
4.76 0.0 0.0 
4.77 0.0 0.0 
4.78 0.0 0.0 
4.79 0.0 0.0 
4.8 0.0 0.0 
4.81 0.0 0.0 
4.82 0.0 0.0 
4.83 0.0 0.0 
4.84 0.0 0.0 
4.85 0.0 0.0 
4.86 0.0 0.0 
4.87 0.0 0.0 
4.88 0.0 0.0 
4.89 0.0 0.0 
4.9 0.0 0.0 
4.91 0.0 0.0 
4.92 0.0 0.0 
4.93 0.0 0.0 
4.94 0.0 0.0 
4.95 0.0 0.0 
4.96 0.0 0.0 
4.97 0.0 0.0 
4.98 0.0 0.0 
4.99 0.0 0.0 
5.0 0.0 0.0 
5.01 0.0 0.0 
5.02 0.0 0.0 
5.03 0.0 0.0 
5.04 0.0 0.0 
5.05 0.0 0.0 
5.06 0.0 0.0 
5.07 0.0 0.0 
5.08 0.0 0.0 
5.09 0.0 0.0 
5.1 0.0 0.0 
5.11 0.0 0.0 
5.12 0.0 0.0 
5.13 0.0 0.0 
5.14 0.0 0.0 
5.15 0.0 0.0 
5.16 0.0 0.0 
5.17 0.0 0.0 
5.18 0.0 0.0 
5.19 0.0 0.0 
5.2 0.0 0.0 
5.21 0.0 0.0 
5.22 0.0 0.0 
5.23 0.0 0.0 
5.24 0.0 0.0 
5.25 0.0 0.0 
5.26 0.0 0.0 
5.27 0.0 0.0 
5.28 0.0 0.0 
5.29 0.0 0.0 
5.3 0.0 0.0 
5.31 0.0 0.0 
5.32 0.0 0.0 
5.33 0.0 0.0 
5.34 0.0 0.0 
5.35 0.0 0.0 
5.36 0.0 0.0 
5.37 0.0 0.0 
5.38 0.0 0.0 
5.39 0.0 0.0 
5.4 0.0 0.0 
5.41 0.0 0.0 
5.42 0.0 0.0 
5.43 0.0 0.0 
5.44 0.0 0.0 
5.45 0.0 0.0 
5.46 0.0 0.0 
5.47 0.0 0.0 
5.48 0.0 0.0 
5.49 0.0 0.0 
5.5 0.0 0.0 
5.51 0.0 0.0 
5.52 0.0 0.0 
5.53 0.0 0.0 
5.54 0.0 0.0 
5.55 0.0 0.0 
5.56 0.0 0.0 
5.57 0.0 0.0 
5.58 0.0 0.0 
5.59 0.0 0.0 
5.6 0.0 0.0 
5.61 0.0 0.0 
5.62 0.0 0.0 
5.63 0.0 0.0 
5.64 0.0 0.0 
5.65 0.0 0.0 
5.66 0.0 0.0 
5.67 0.0 0.0 
5.68 0.0 0.0 
5.69 0.0 0.0 
5.7 0.0 0.0 
5.71 0.0 0.0 
5.72 0.0 0.0 
5.73 0.0 0.0 
5.74 0.0 0.0 
5.75 0.0 0.0 
5.76 0.0 0.0 
5.77 0.0 0.0 
5.78 0.0 0.0 
5.79 0.0 0.0 
5.8 0.0 0.0 
5.81 0.0 0.0 
5.82 0.0 0.0 
5.83 0.0 0.0 
5.84 0.0 0.0 
5.85 0.0 0.0 
5.86 0.0 0.0 
5.87 0.0 0.0 
5.88 0.0 0.0 
5.89 0.0 0.0 
5.9 0.0 0.0 
5.91 0.0 0.0 
5.92 0.0 0.0 
5.93 0.0 0.0 
5.94 0.0 0.0 
5.95 0.0 0.0 
5.96 0.0 0.0 
5.97 0.0 0.0 
5.98 0.0 0.0 
5.99 0.0 0.0 
6.0 0.0 0.0 
6.01 0.0 0.0 
# l= 1
0.0 0.0 0.0 
0.01 0.10249830014 0.066583441732 
0.02 0.2048574154 0.13303283708 
0.03 0.30693839403 0.19921431916 
0.04 0.40860275032 0.26499438062 
0.05 0.50971269685 0.33024005474 
0.06 0.61013137604 0.39481909807 
0.07 0.70972309045 0.4586001751 
0.08 0.80835353176 0.52145304545 
0.09 0.90589000803 0.58324875394 
0.1 1.0022016689 0.64385982396 
0.11 1.0971597288 0.70316045435 
0.12 1.1906376868 0.76102672023 
0.13 1.2825115445 0.81733677769 
0.14 1.3726600201 0.8719710728 
0.15 1.4609647589 0.92481255463 
0.16 1.5473105398 0.97574689263 
0.17 1.631585478 1.0246626977 
0.18 1.7136812223 1.0714517475 
0.19 1.7934931481 1.1160092151 
0.2 1.8709205447 1.1582339006 
0.21 1.9458667967 1.1980284656 
0.22 2.0182395591 1.2352996703 
0.23 2.0879509266 1.2699586109 
0.24 2.1549175953 1.3019209592 
0.25 2.2190610164 1.3311072007 
0.26 2.2803075442 1.3574428734 
0.27 2.3385885736 1.3808588033 
0.28 2.3938406702 1.4012913372 
0.29 2.4460056914 1.4186825722 
0.3 2.4950308977 1.4329805798 
0.31 2.5408690548 1.4441396229 
0.32 2.5834785251 1.4521203664 
0.33 2.6228233473 1.4568900751 
0.34 2.6588733098 1.4584228108 
0.35 2.6916040056 1.456699603 
0.36 2.7209968836 1.4517086238 
0.37 2.7470392798 1.4434453308 
0.38 2.7697244444 1.4319126111 
0.39 2.7890515509 1.4171208972 
0.4 2.8050256939 1.3990882676 
0.41 2.8176578752 1.3778405296 
0.42 2.826964976 1.3534112804 
0.43 2.8329697155 1.3258419462 
0.44 2.8357005977 1.2951817993 
0.45 2.835191843 1.2614879505 
0.46 2.8314833075 1.2248253172 
0.47 2.824620389 1.185266566 
0.48 2.8146539188 1.1428920291 
0.49 2.8016400439 1.0977895932 
0.5 2.7856400876 1.0500545658 
0.51 2.7667204053 0.99978950477 
0.52 2.744952232 0.94710403148 
0.53 2.7204114976 0.89211460528 
0.54 2.6931786503 0.83494427621 
0.55 2.6633384714 0.77572242143 
0.56 2.6309798374 0.71458441222 
0.57 2.5961955542 0.65167133824 
0.58 2.5590820615 0.58712957795 
0.59 2.5197392723 0.52111050888 
0.6 2.4782702537 0.45377001447 
0.61 2.4347810212 0.38526811968 
0.62 2.3893802788 0.3157685495 
0.63 2.3421790832 0.2454381663 
0.64 2.293290667 0.17444662479 
0.65 2.2428300968 0.10296578306 
0.66 2.1909139595 0.031169137871 
0.67 2.1376601405 -0.040768602417 
0.68 2.0831875518 -0.11267202296 
0.69 2.0276156988 -0.18436577926 
0.7 1.9710645059 -0.25567496105 
0.71 1.9136539974 -0.32642569115 
0.72 1.855504 -0.39644569487 
0.73 1.7967338881 -0.46556479552 
0.74 1.737462152 -0.53361572395 
0.75 1.6778062561 -0.600434423 
0.76 1.6178823114 -0.66586067547 
0.77 1.5578047981 -0.72973864345 
0.78 1.497686295 -0.79191739487 
0.79 1.4376372167 -0.85225141489 
0.8 1.377765559 -0.91060109953 
0.81 1.3181766528 -0.96683322956 
0.82 1.258972929 -1.0208214221 
0.83 1.2002536933 -1.0724465578 
0.84 1.142114913 -1.1215971823 
0.85 1.0846490152 -1.1681698783 
0.86 1.0279446984 -1.2120696088 
0.87 0.97208675725 -1.2532100277 
0.88 0.91715592081 -1.2915137574 
0.89 0.86322870594 -1.3269126312 
0.9 0.81037728496 -1.3593478999 
0.91 0.75866936894 -1.3887704012 
0.92 0.70816810656 -1.4151406897 
0.93 0.65893199908 -1.4384291294 
0.94 0.61101483141 -1.4586159446 
0.95 0.5644656197 -1.4756912322 
0.96 0.51932857533 -1.4896549328 
0.97 0.47564309025 -1.5005167546 
0.98 0.43344383424 -1.5082959124 
0.99 0.39276042073 -1.5130215271 
1.0 0.35361778311 -1.5147318772 
1.01 0.3160361082 -1.5134743559 
1.02 0.28003089631 -1.5093052103 
1.03 0.24561303568 -1.5022892467 
1.04 0.21278900203 -1.4924993998 
1.05 0.1815605975 -1.480016773 
1.06 0.15192539962 -1.464929826 
1.07 0.12387682749 -1.447334049 
1.08 0.097404260651 -1.4273315464 
1.09 0.072493262001 -1.4050306703 
1.1 0.049125429864 -1.3805454057 
1.11 0.027278929282 -1.3539948139 
1.12 0.0069285485974 -1.325502569 
1.13 -0.011954132344 -1.2951967575 
1.14 -0.029400604443 -1.2632085953 
1.15 -0.045445098448 -1.2296722088 
1.16 -0.060124439266 -1.1947242146 
1.17 -0.07347799907 -1.1585038343 
1.18 -0.085547111882 -1.1211501019 
1.19 -0.096375112761 -1.082803228 
1.2 -0.1060072697 -1.0436043081 
1.21 -0.11449026486 -1.0036933106 
1.22 -0.12187188466 -0.96320847101 
1.23 -0.12820129253 -0.92228760861 
1.24 -0.13352867108 -0.88106681567 
1.25 -0.13790424925 -0.83967742518 
1.26 -0.14137919733 -0.79824943568 
1.27 -0.14400526831 -0.7569102279 
1.28 -0.14583327003 -0.7157799627 
1.29 -0.14691467497 -0.67497699926 
1.3 -0.14730085466 -0.63461541066 
1.31 -0.147041551 -0.59480074502 
1.32 -0.14618707824 -0.55563675054 
1.33 -0.14478649969 -0.51722001402 
1.34 -0.14288714901 -0.47963905565 
1.35 -0.14053697712 -0.44298086175 
1.36 -0.13778091797 -0.40732105572 
1.37 -0.13466313882 -0.3727303933 
1.38 -0.13122756085 -0.33927589835 
1.39 -0.12751410251 -0.30701163439 
1.4 -0.12356340324 -0.27599076874 
1.41 -0.11941296549 -0.24625600231 
1.42 -0.11509839676 -0.21784314183 
1.43 -0.11065525985 -0.19078514464 
1.44 -0.10611425141 -0.16510164496 
1.45 -0.10150715529 -0.1408122838 
1.46 -0.096861515286 -0.11792522957 
1.47 -0.092203963404 -0.096444747515 
1.48 -0.087559520783 -0.076369419617 
1.49 -0.082949529388 -0.057688999583 
1.5 -0.078396317051 -0.04039263401 
1.51 -0.073916633026 -0.024457996384 
1.52 -0.069528785891 -0.009863294542 
1.53 -0.065246489797 0.0034222993267 
1.54 -0.061083543692 0.015431146858 
1.55 -0.057050972887 0.026201339207 
1.56 -0.053158350464 0.035774012095 
1.57 -0.049414072212 0.044193720554 
1.58 -0.045823957557 0.051508312865 
1.59 -0.042393843959 0.057767925056 
1.6 -0.039126319753 0.063025070833 
1.61 -0.036024772253 0.067334462171 
1.62 -0.033089093814 0.070751337641 
1.63 -0.030320378287 0.073333855934 
1.64 -0.027716378292 0.075138285174 
1.65 -0.025275997698 0.076224761376 
1.66 -0.022995422839 0.076649293042 
1.67 -0.020871648368 0.076472482142 
1.68 -0.018899655725 0.075748829715 
1.69 -0.017074914084 0.074538139863 
1.7 -0.015391517904 0.072892107642 
1.71 -0.013843774397 0.070868719292 
1.72 -0.012425220503 0.068515622832 
1.73 -0.011129317398 0.065888181818 
1.74 -0.0099493677257 0.063029073075 
1.75 -0.0088782796713 0.059989804857 
1.76 -0.0079093823017 0.056808052197 
1.77 -0.0070353662691 0.053529866511 
1.78 -0.0062497369063 0.050188303603 
1.79 -0.0055453127938 0.046822754916 
1.8 -0.0049158622992 0.043461885854 
1.81 -0.0043546614829 0.040137540653 
1.82 -0.0038557752061 0.036874349796 
1.83 -0.0034132331839 0.033696009635 
1.84 -0.0030213962069 0.03062348445 
1.85 -0.0026752884389 0.027672108173 
1.86 -0.0023695586184 0.024859432175 
1.87 -0.0021003725011 0.022192749678 
1.88 -0.0018627138239 0.019686080129 
1.89 -0.0016536584871 0.017340848399 
1.9 -0.0014690224871 0.015165009544 
1.91 -0.0013061780208 0.013157997315 
1.92 -0.0011620081903 0.011321141863 
1.93 -0.0010340200675 0.0096526736073 
1.94 -0.0009201825246 0.0081482489759 
1.95 -0.00081812540889 0.0068047224134 
1.96 -0.00072672202923 0.0056138955671 
1.97 -0.00064394294382 0.0045702795079 
1.98 -0.00056908391688 0.0036642733972 
1.99 -0.00050091233389 0.0028872010081 
2.0 -0.00043866058787 0.0022294565794 
2.01 -0.00038184454571 0.0016806031517 
2.02 -0.00032971747074 0.0012302178145 
2.03 -0.00028219817669 0.00086807395866 
2.04 -0.00023883904031 0.00058283633943 
2.05 -0.00019955060046 0.00036495878896 
2.06 -0.00016422069386 0.00020411687174 
2.07 -0.00013271317005 9.0148592943e-05 
2.08 -0.00010499705979 1.5567000078e-05 
2.09 -8.1027255425e-05 -3.0237155147e-05 
2.1 -6.0668460911e-05 -5.2721468979e-05 
2.11 -4.3839857467e-05 -5.9295560466e-05 
2.12 -3.0406471776e-05 -5.6556035731e-05 
2.13 -2.0047423087e-05 -4.7084295382e-05 
2.14 -1.2646361108e-05 -3.7519182507e-05 
2.15 -7.6999528119e-06 -2.8153942515e-05 
2.16 -4.808471208e-06 -2.1026292723e-05 
2.17 -3.5630504455e-06 -1.8277819507e-05 
2.18 -3.1316929835e-06 -1.6216431427e-05 
2.19 -2.171859396e-06 -1.1307909486e-05 
2.2 -9.3637759722e-07 -5.0261719127e-06 
2.21 2.6591664363e-08 1.347315472e-07 
2.22 2.0412700162e-07 1.034246912e-06 
2.23 1.1170712459e-07 5.6598464555e-07 
2.24 0.0 0.0 
2.25 0.0 0.0 
2.26 0.0 0.0 
2.27 0.0 0.0 
2.28 0.0 0.0 
2.29 0.0 0.0 
2.3 0.0 0.0 
2.31 0.0 0.0 
2.32 0.0 0.0 
2.33 0.0 0.0 
2.34 0.0 0.0 
2.35 0.0 0.0 
2.36 0.0 0.0 
2.37 0.0 0.0 
2.38 0.0 0.0 
2.39 0.0 0.0 
2.4 0.0 0.0 
2.41 0.0 0.0 
2.42 0.0 0.0 
2.43 0.0 0.0 
2.44 0.0 0.0 
2.45 0.0 0.0 
2.46 0.0 0.0 
2.47 0.0 0.0 
2.48 0.0 0.0 
2.49 0.0 0.0 
2.5 0.0 0.0 
2.51 0.0 0.0 
2.52 0.0 0.0 
2.53 0.0 0.0 
2.54 0.0 0.0 
2.55 0.0 0.0 
2.56 0.0 0.0 
2.57 0.0 0.0 
2.58 0.0 0.0 
2.59 0.0 0.0 
2.6 0.0 0.0 
2.61 0.0 0.0 
2.62 0.0 0.0 
2.63 0.0 0.0 
2.64 0.0 0.0 
2.65 0.0 0.0 
2.66 0.0 0.0 
2.67 0.0 0.0 
2.68 0.0 0.0 
2.69 0.0 0.0 
2.7 0.0 0.0 
2.71 0.0 0.0 
2.72 0.0 0.0 
2.73 0.0 0.0 
2.74 0.0 0.0 
2.75 0.0 0.0 
2.76 0.0 0.0 
2.77 0.0 0.0 
2.78 0.0 0.0 
2.79 0.0 0.0 
2.8 0.0 0.0 
2.81 0.0 0.0 
2.82 0.0 0.0 
2.83 0.0 0.0 
2.84 0.0 0.0 
2.85 0.0 0.0 
2.86 0.0 0.0 
2.87 0.0 0.0 
2.88 0.0 0.0 
2.89 0.0 0.0 
2.9 0.0 0.0 
2.91 0.0 0.0 
2.92 0.0 0.0 
2.93 0.0 0.0 
2.94 0.0 0.0 
2.95 0.0 0.0 
2.96 0.0 0.0 
2.97 0.0 0.0 
2.98 0.0 0.0 
2.99 0.0 0.0 
3.0 0.0 0.0 
3.01 0.0 0.0 
3.02 0.0 0.0 
3.03 0.0 0.0 
3.04 0.0 0.0 
3.05 0.0 0.0 
3.06 0.0 0.0 
3.07 0.0 0.0 
3.08 0.0 0.0 
3.09 0.0 0.0 
3.1 0.0 0.0 
3.11 0.0 0.0 
3.12 0.0 0.0 
3.13 0.0 0.0 
3.14 0.0 0.0 
3.15 0.0 0.0 
3.16 0.0 0.0 
3.17 0.0 0.0 
3.18 0.0 0.0 
3.19 0.0 0.0 
3.2 0.0 0.0 
3.21 0.0 0.0 
3.22 0.0 0.0 
3.23 0.0 0.0 
3.24 0.0 0.0 
3.25 0.0 0.0 
3.26 0.0 0.0 
3.27 0.0 0.0 
3.28 0.0 0.0 
3.29 0.0 0.0 
3.3 0.0 0.0 
3.31 0.0 0.0 
3.32 0.0 0.0 
3.33 0.0 0.0 
3.34 0.0 0.0 
3.35 0.0 0.0 
3.36 0.0 0.0 
3.37 0.0 0.0 
3.38 0.0 0.0 
3.39 0.0 0.0 
3.4 0.0 0.0 
3.41 0.0 0.0 
3.42 0.0 0.0 
3.43 0.0 0.0 
3.44 0.0 0.0 
3.45 0.0 0.0 
3.46 0.0 0.0 
3.47 0.0 0.0 
3.48 0.0 0.0 
3.49 0.0 0.0 
3.5 0.0 0.0 
3.51 0.0 0.0 
3.52 0.0 0.0 
3.53 0.0 0.0 
3.54 0.0 0.0 
3.55 0.0 0.0 
3.56 0.0 0.0 
3.57 0.0 0.0 
3.58 0.0 0.0 
3.59 0.0 0.0 
3.6 0.0 0.0 
3.61 0.0 0.0 
3.62 0.0 0.0 
3.63 0.0 0.0 
3.64 0.0 0.0 
3.65 0.0 0.0 
3.66 0.0 0.0 
3.67 0.0 0.0 
3.68 0.0 0.0 
3.69 0.0 0.0 
3.7 0.0 0.0 
3.71 0.0 0.0 
3.72 0.0 0.0 
3.73 0.0 0.0 
3.74 0.0 0.0 
3.75 0.0 0.0 
3.76 0.0 0.0 
3.77 0.0 0.0 
3.78 0.0 0.0 
3.79 0.0 0.0 
3.8 0.0 0.0 
3.81 0.0 0.0 
3.82 0.0 0.0 
3.83 0.0 0.0 
3.84 0.0 0.0 
3.85 0.0 0.0 
3.86 0.0 0.0 
3.87 0.0 0.0 
3.88 0.0 0.0 
3.89 0.0 0.0 
3.9 0.0 0.0 
3.91 0.0 0.0 
3.92 0.0 0.0 
3.93 0.0 0.0 
3.94 0.0 0.0 
3.95 0.0 0.0 
3.96 0.0 0.0 
3.97 0.0 0.0 
3.98 0.0 0.0 
3.99 0.0 0.0 
4.0 0.0 0.0 
4.01 0.0 0.0 
4.02 0.0 0.0 
4.03 0.0 0.0 
4.04 0.0 0.0 
4.05 0.0 0.0 
4.06 0.0 0.0 
4.07 0.0 0.0 
4.08 0.0 0.0 
4.09 0.0 0.0 
4.1 0.0 0.0 
4.11 0.0 0.0 
4.12 0.0 0.0 
4.13 0.0 0.0 
4.14 0.0 0.0 
4.15 0.0 0.0 
4.16 0.0 0.0 
4.17 0.0 0.0 
4.18 0.0 0.0 
4.19 0.0 0.0 
4.2 0.0 0.0 
4.21 0.0 0.0 
4.22 0.0 0.0 
4.23 0.0 0.0 
4.24 0.0 0.0 
4.25 0.0 0.0 
4.26 0.0 0.0 
4.27 0.0 0.0 
4.28 0.0 0.0 
4.29 0.0 0.0 
4.3 0.0 0.0 
4.31 0.0 0.0 
4.32 0.0 0.0 
4.33 0.0 0.0 
4.34 0.0 0.0 
4.35 0.0 0.0 
4.36 0.0 0.0 
4.37 0.0 0.0 
4.38 0.0 0.0 
4.39 0.0 0.0 
4.4 0.0 0.0 
4.41 0.0 0.0 
4.42 0.0 0.0 
4.43 0.0 0.0 
4.44 0.0 0.0 
4.45 0.0 0.0 
4.46 0.0 0.0 
4.47 0.0 0.0 
4.48 0.0 0.0 
4.49 0.0 0.0 
4.5 0.0 0.0 
4.51 0.0 0.0 
4.52 0.0 0.0 
4.53 0.0 0.0 
4.54 0.0 0.0 
4.55 0.0 0.0 
4.56 0.0 0.0 
4.57 0.0 0.0 
4.58 0.0 0.0 
4.59 0.0 0.0 
4.6 0.0 0.0 
4.61 0.0 0.0 
4.62 0.0 0.0 
4.63 0.0 0.0 
4.64 0.0 0.0 
4.65 0.0 0.0 
4.66 0.0 0.0 
4.67 0.0 0.0 
4.68 0.0 0.0 
4.69 0.0 0.0 
4.7 0.0 0.0 
4.71 0.0 0.0 
4.72 0.0 0.0 
4.73 0.0 0.0 
4.74 0.0 0.0 
4.75 0.0 0.0 
4.76 0.0 0.0 
4.77 0.0 0.0 
4.78 0.0 0.0 
4.79 0.0 0.0 
4.8 0.0 0.0 
4.81 0.0 0.0 
4.82 0.0 0.0 
4.83 0.0 0.0 
4.84 0.0 0.0 
4.85 0.0 0.0 
4.86 0.0 0.0 
4.87 0.0 0.0 
4.88 0.0 0.0 
4.89 0.0 0.0 
4.9 0.0 0.0 
4.91 0.0 0.0 
4.92 0.0 0.0 
4.93 0.0 0.0 
4.94 0.0 0.0 
4.95 0.0 0.0 
4.96 0.0 0.0 
4.97 0.0 0.0 
4.98 0.0 0.0 
4.99 0.0 0.0 
5.0 0.0 0.0 
5.01 0.0 0.0 
5.02 0.0 0.0 
5.03 0.0 0.0 
5.04 0.0 0.0 
5.05 0.0 0.0 
5.06 0.0 0.0 
5.07 0.0 0.0 
5.08 0.0 0.0 
5.09 0.0 0.0 
5.1 0.0 0.0 
5.11 0.0 0.0 
5.12 0.0 0.0 
5.13 0.0 0.0 
5.14 0.0 0.0 
5.15 0.0 0.0 
5.16 0.0 0.0 
5.17 0.0 0.0 
5.18 0.0 0.0 
5.19 0.0 0.0 
5.2 0.0 0.0 
5.21 0.0 0.0 
5.22 0.0 0.0 
5.23 0.0 0.0 
5.24 0.0 0.0 
5.25 0.0 0.0 
5.26 0.0 0.0 
5.27 0.0 0.0 
5.28 0.0 0.0 
5.29 0.0 0.0 
5.3 0.0 0.0 
5.31 0.0 0.0 
5.32 0.0 0.0 
5.33 0.0 0.0 
5.34 0.0 0.0 
5.35 0.0 0.0 
5.36 0.0 0.0 
5.37 0.0 0.0 
5.38 0.0 0.0 
5.39 0.0 0.0 
5.4 0.0 0.0 
5.41 0.0 0.0 
5.42 0.0 0.0 
5.43 0.0 0.0 
5.44 0.0 0.0 
5.45 0.0 0.0 
5.46 0.0 0.0 
5.47 0.0 0.0 
5.48 0.0 0.0 
5.49 0.0 0.0 
5.5 0.0 0.0 
5.51 0.0 0.0 
5.52 0.0 0.0 
5.53 0.0 0.0 
5.54 0.0 0.0 
5.55 0.0 0.0 
5.56 0.0 0.0 
5.57 0.0 0.0 
5.58 0.0 0.0 
5.59 0.0 0.0 
5.6 0.0 0.0 
5.61 0.0 0.0 
5.62 0.0 0.0 
5.63 0.0 0.0 
5.64 0.0 0.0 
5.65 0.0 0.0 
5.66 0.0 0.0 
5.67 0.0 0.0 
5.68 0.0 0.0 
5.69 0.0 0.0 
5.7 0.0 0.0 
5.71 0.0 0.0 
5.72 0.0 0.0 
5.73 0.0 0.0 
5.74 0.0 0.0 
5.75 0.0 0.0 
5.76 0.0 0.0 
5.77 0.0 0.0 
5.78 0.0 0.0 
5.79 0.0 0.0 
5.8 0.0 0.0 
5.81 0.0 0.0 
5.82 0.0 0.0 
5.83 0.0 0.0 
5.84 0.0 0.0 
5.85 0.0 0.0 
5.86 0.0 0.0 
5.87 0.0 0.0 
5.88 0.0 0.0 
5.89 0.0 0.0 
5.9 0.0 0.0 
5.91 0.0 0.0 
5.92 0.0 0.0 
5.93 0.0 0.0 
5.94 0.0 0.0 
5.95 0.0 0.0 
5.96 0.0 0.0 
5.97 0.0 0.0 
5.98 0.0 0.0 
5.99 0.0 0.0 
6.0 0.0 0.0 
6.01 0.0 0.0 
# l= 2
0.0 0.0 0.0 
0.01 0.001905638597 0.0010205971727 
0.02 0.0076165701786 0.0040775325559 
0.03 0.017114861793 0.0091562572112 
0.04 0.030370690712 0.01623258772 
0.05 0.047342442478 0.025272803145 
0.06 0.067976847707 0.036233780254 
0.07 0.092209157167 0.049063166497 
0.08 0.11996335455 0.063699590079 
0.09 0.15115240616 0.080072906311 
0.1 0.18567854677 0.09810447933 
0.11 0.22343360054 0.11770749807 
0.12 0.26429933595 0.13878732532 
0.13 0.30814785358 0.16124187849 
0.14 0.35484200534 0.18496204068 
0.15 0.40423584372 0.2098321004 
0.16 0.45617509958 0.23573021832 
0.17 0.51049768673 0.26252891924 
0.18 0.5670342317 0.29009560734 
0.19 0.62560862675 0.3182931028 
0.2 0.68603860437 0.34698019764 
0.21 0.74813633109 0.37601222864 
0.22 0.81170901875 0.40524166518 
0.23 0.87655955111 0.43451870964 
0.24 0.94248712347 0.4636919081 
0.25 1.0092878931 0.4926087687 
0.26 1.0767556391 0.52111638589 
0.27 1.1446824274 0.54906206713 
0.28 1.2128592809 0.57629396042 
0.29 1.2810768512 0.60266167988 
0.3 1.3491260898 0.62801692685 
0.31 1.4167989163 0.65221410406 
0.32 1.4838888817 0.67511092053 
0.33 1.5501918238 0.69656898433 
0.34 1.6155065147 0.7164543823 
0.35 1.6796352936 0.73463824166 
0.36 1.7423846883 0.75099727438 
0.37 1.8035660186 0.76541429969 
0.38 1.8629959826 0.77777874386 
0.39 1.9204972221 0.78798711462 
0.4 1.9758988664 0.79594344887 
0.41 2.0290370515 0.80155973124 
0.42 2.0797554137 0.8047562819 
0.43 2.1279055565 0.80546211215 
0.44 2.173347487 0.80361524609 
0.45 2.2159500232 0.79916300716 
0.46 2.2555911684 0.79206226812 
0.47 2.2921584531 0.7822796635 
0.48 2.3255492432 0.76979176383 
0.49 2.3556710186 0.75458521916 
0.5 2.3824415936 0.7366568326 
0.51 2.4057893287 0.71601363027 
0.52 2.4256533046 0.69267288973 
0.53 2.4419834178 0.66666207609 
0.54 2.4547404872 0.63801879935 