#ONCVPSP  (Optimized Norm-Conservinng Vanderbilt PSeudopotential)
#scalar-relativistic version 2.1.2, 09/16/2014
#D. R. Hamann, Phys. Rev. B 88, 085117 (2013)
# ATOM AND REFERENCE CONFIGURATION
# atsym  z    nc    nv    iexc
#  Li  3.00     0     2     3 
#   n    l    f        energy (Ha)
#    1    0    2.00    -1.8779957E+00
#    2    0    1.00    -1.0572773E-01
# PSEUDOPOTENTIAL AND OPTIMIZATION
#   l,   rc,     ep,   ncon, nbas, qcut
#    0    2.00   -1.88    4    8    6.00
#    1    3.00    0.10    4    8    4.00
# LOCAL POTENTIAL
# lloc, lpopt,  rc(5),   dvloc0
#    4    5      1.00       0.00
#
# VANDERBILT-KLEINMAN-BYLANDER PROJECTORs
# l, nproj, debl
#    0    2    1.7723
#    1    2    0.7500
#
Li_ONCVPSP_LDA
#color
Silver
#radii of balls and covalent bonds
1.0  2.7
# Nlcc flag
0
# Atomic number
3
# Atomic mass
6.941
# Number of valence electrons
3
# Gaussian core charge parameter rc
1.
# Number of potentials
3
# l-value for state which is local, then type of potential format
2   2
# Local potential radius
3.2
# Non-local potential radius
3.2
# number of points in radial grid
600
# VANDERBILT-KLEINMAN-BYLANDER PROJECTORs
# l, nproj
0   2  -2.5000025868368E+00 -1.2006906995331E+00
1   2  -1.3261028808025E+00 -6.2205725184868E-01
# radial grid, potential, and reference state for l=0
0.0000000000000E+00  0.0000000000000E+00  0.0000000000000E+00
1.0000000000000E-02  4.4140499497377E-02  1.9909081701712E-02
2.0000000000000E-02  8.8240464365141E-02  3.9748526938061E-02
3.0000000000000E-02  1.3225936689757E-01  5.9448909608544E-02
4.0000000000000E-02  1.7615669335610E-01  7.8941223304466E-02
5.0000000000000E-02  2.1989195125136E-01  9.8157088567486E-02
6.0000000000000E-02  2.6342467698361E-01  1.1702895706373E-01
7.0000000000000E-02  3.0671444396137E-01  1.3549031168022E-01
8.0000000000000E-02  3.4972087131815E-01  1.5347586157756E-01
9.0000000000000E-02  3.9240363334772E-01  1.7092173127135E-01
1.0000000000000E-01  4.3472246977825E-01  1.8776564285478E-01
1.1000000000000E-01  4.7663719700617E-01  2.0394709052365E-01
1.2000000000000E-01  5.1810772041039E-01  2.1940750662358E-01
1.3000000000000E-01  5.5909404786818E-01  2.3409041849822E-01
1.4000000000000E-01  5.9955630459157E-01  2.4794159546391E-01
1.5000000000000E-01  6.3945474940807E-01  2.6090918536528E-01
1.6000000000000E-01  6.7874979259860E-01  2.7294384013003E-01
1.7000000000000E-01  7.1740201542025E-01  2.8399882997834E-01
1.8000000000000E-01  7.5537219141778E-01  2.9403014582510E-01
1.9000000000000E-01  7.9262130966041E-01  3.0299658974712E-01
2.0000000000000E-01  8.2911059996638E-01  3.1085985306808E-01
2.1000000000000E-01  8.6480156032360E-01  3.1758458243201E-01
2.2000000000000E-01  8.9965598647409E-01  3.2313843322405E-01
2.3000000000000E-01  9.3363600389158E-01  3.2749211097238E-01
2.4000000000000E-01  9.6670410211874E-01  3.3061940047918E-01
2.5000000000000E-01  9.9882317179448E-01  3.3249718341849E-01
2.6000000000000E-01  1.0299565439684E+00  3.3310544387807E-01
2.7000000000000E-01  1.0600680325225E+00  3.3242726340040E-01
2.8000000000000E-01  1.0891219789040E+00  3.3044880482842E-01
2.9000000000000E-01  1.1170832999103E+00  3.2715928637408E-01
3.0000000000000E-01  1.1439175382509E+00  3.2255094609082E-01
3.1000000000000E-01  1.1695909159719E+00  3.1661899751396E-01
3.2000000000000E-01  1.1940703904874E+00  3.0936157733278E-01
3.3000000000000E-01  1.2173237141729E+00  3.0077968554062E-01
3.4000000000000E-01  1.2393194962262E+00  2.9087711914205E-01
3.5000000000000E-01  1.2600272669060E+00  2.7966040074051E-01
3.6000000000000E-01  1.2794175462190E+00  2.6713870114899E-01
3.7000000000000E-01  1.2974619136038E+00  2.5332375923272E-01
3.8000000000000E-01  1.3141330798355E+00  2.3822979932351E-01
3.9000000000000E-01  1.3294049644992E+00  2.2187344383403E-01
4.0000000000000E-01  1.3432527722467E+00  2.0427362773432E-01
4.1000000000000E-01  1.3556530727485E+00  1.8545151148291E-01
4.2000000000000E-01  1.3665838827000E+00  1.6543039441125E-01
4.3000000000000E-01  1.3760247494272E+00  1.4423562962769E-01
4.4000000000000E-01  1.3839568360058E+00  1.2189454108644E-01
4.5000000000000E-01  1.3903630076284E+00  9.8436343546742E-02
4.6000000000000E-01  1.3952279189070E+00  7.3892066109731E-02
4.7000000000000E-01  1.3985381017315E+00  4.8294479986496E-02
4.8000000000000E-01  1.4002820502446E+00  2.1678033670315E-02
4.9000000000000E-01  1.4004503173876E+00 -5.9212170439856E-03
5.0000000000000E-01  1.3990355955626E+00 -3.4465659647383E-02
5.1000000000000E-01  1.3960328014935E+00 -6.3916174902085E-02
5.2000000000000E-01  1.3914391653166E+00 -9.4232185471084E-02
5.3000000000000E-01  1.3852543200269E+00 -1.2537169906574E-01
5.4000000000000E-01  1.3774803618492E+00 -1.5729132662153E-01
5.5000000000000E-01  1.3681219575971E+00 -1.8994633037095E-01
5.6000000000000E-01  1.3571863903633E+00 -2.2329062498940E-01
5.7000000000000E-01  1.3446836531454E+00 -2.5727680913160E-01
5.8000000000000E-01  1.3306264955389E+00 -2.9185616410140E-01
5.9000000000000E-01  1.3150305067500E+00 -3.2697867340491E-01
6.0000000000000E-01  1.2979141381370E+00 -3.6259300774323E-01
6.1000000000000E-01  1.2792987978911E+00 -3.9864654821101E-01
6.2000000000000E-01  1.2592088422134E+00 -4.3508535859162E-01
6.3000000000000E-01  1.2376716490077E+00 -4.7185419997483E-01
6.4000000000000E-01  1.2147176318963E+00 -5.0889652018539E-01
6.5000000000000E-01  1.1903802402910E+00 -5.4615444268248E-01
6.6000000000000E-01  1.1646959967525E+00 -5.8356877621963E-01
6.7000000000000E-01  1.1377044839644E+00 -6.2107901061526E-01
6.8000000000000E-01  1.1094483258558E+00 -6.5862331837096E-01
6.9000000000000E-01  1.0799731646588E+00 -6.9613856279672E-01
7.0000000000000E-01  1.0493276495988E+00 -7.3356032583181E-01
7.1000000000000E-01  1.0175633707244E+00 -7.7082292204677E-01
7.2000000000000E-01  9.8473480667485E-01 -8.0785943327619E-01
7.3000000000000E-01  9.5089925702025E-01 -8.4460175227011E-01
7.4000000000000E-01  9.1611676097470E-01 -8.8098063441886E-01
7.5000000000000E-01  8.8045000454869E-01 -9.1692576816140E-01
7.6000000000000E-01  8.4396420955616E-01 -9.5236585962785E-01
7.7000000000000E-01  8.0672701379505E-01 -9.8722871928723E-01
7.8000000000000E-01  7.6880833783417E-01 -1.0214413755534E+00
7.9000000000000E-01  7.3028023811682E-01 -1.0549302016277E+00
8.0000000000000E-01  6.9121674696253E-01 -1.0876210594615E+00
8.1000000000000E-01  6.5169369962947E-01 -1.1194394614739E+00
8.2000000000000E-01  6.1178854866840E-01 -1.1503107505448E+00
8.3000000000000E-01  5.7158016586745E-01 -1.1801602986653E+00
8.4000000000000E-01  5.3114863215596E-01 -1.2089137244997E+00
8.5000000000000E-01  4.9057501590522E-01 -1.2364971299671E+00
8.6000000000000E-01  4.4994114013419E-01 -1.2628373558047E+00
8.7000000000000E-01  4.0932933920041E-01 -1.2878622559221E+00
8.8000000000000E-01  3.6882220562994E-01 -1.3115009901976E+00
8.9000000000000E-01  3.2850232781675E-01 -1.3336843351992E+00
9.0000000000000E-01  2.8845201940095E-01 -1.3543450121411E+00
9.1000000000000E-01  2.4875304121798E-01 -1.3734180312068E+00
9.2000000000000E-01  2.0948631679559E-01 -1.3908410511764E+00
9.3000000000000E-01  1.7073164246331E-01 -1.4065547531051E+00
9.4000000000000E-01  1.3256739322620E-01 -1.4205032265925E+00
9.5000000000000E-01  9.5070225640937E-02 -1.4326343669859E+00
9.6000000000000E-01  5.8314900857991E-02 -1.4429001282849E+00
9.7000000000000E-01  2.2373640160625E-02 -1.4512573670741E+00
9.8000000000000E-01 -1.2683869644287E-02 -1.4576678867037E+00
9.9000000000000E-01 -4.6790866667913E-02 -1.4620989759188E+00
1.0000000000000E+00 -7.9883811634199E-02 -1.4645238505656E+00
1.0100000000000E+00 -1.1190267998913E-01 -1.4649220782193E+00
1.0200000000000E+00 -1.4279114896624E-01 -1.4632795132775E+00
1.0300000000000E+00 -1.7249672156236E-01 -1.4595873703996E+00
1.0400000000000E+00 -2.0097122751445E-01 -1.4538412227540E+00
1.0500000000000E+00 -2.2817035360657E-01 -1.4460408553788E+00
1.0600000000000E+00 -2.5405390360546E-01 -1.4361905390487E+00
1.0700000000000E+00 -2.7858582071189E-01 -1.4242991532710E+00
1.0800000000000E+00 -3.0173408932776E-01 -1.4103801977942E+00
1.0900000000000E+00 -3.2347160779836E-01 -1.3944525792539E+00
1.1000000000000E+00 -3.4377533643431E-01 -1.3765400564746E+00
1.1100000000000E+00 -3.6262659660752E-01 -1.3566715381221E+00
1.1200000000000E+00 -3.8001077451659E-01 -1.3348808893817E+00
1.1300000000000E+00 -3.9591828631613E-01 -1.3112078283595E+00
1.1400000000000E+00 -4.1034381050376E-01 -1.2856973359589E+00
1.1500000000000E+00 -4.2328629148385E-01 -1.2583996806638E+00
1.1600000000000E+00 -4.3474862148146E-01 -1.2293701529465E+00
1.1700000000000E+00 -4.4473885611481E-01 -1.1986701860307E+00
1.1800000000000E+00 -4.5326893229335E-01 -1.1663661948194E+00
1.1900000000000E+00 -4.6035472398779E-01 -1.1325296134589E+00
1.2000000000000E+00 -4.6601634630638E-01 -1.0972371577255E+00
1.2100000000000E+00 -4.7027825782060E-01 -1.0605708282333E+00
1.2200000000000E+00 -4.7316843866175E-01 -1.0226171337810E+00
1.2300000000000E+00 -4.7471841999465E-01 -9.8346713260863E-01
1.2400000000000E+00 -4.7496398387511E-01 -9.4321673862938E-01
1.2500000000000E+00 -4.7394395341425E-01 -9.0196567826185E-01
1.2600000000000E+00 -4.7170026731337E-01 -8.5981765226690E-01
1.2700000000000E+00 -4.6827846724786E-01 -8.1688002451022E-01
1.2800000000000E+00 -4.6372666404965E-01 -7.7326318446406E-01
1.2900000000000E+00 -4.5809572336471E-01 -7.2908090719071E-01
1.3000000000000E+00 -4.5143912700148E-01 -6.8444883673103E-01
1.3100000000000E+00 -4.4381246476854E-01 -6.3948492198885E-01
1.3200000000000E+00 -4.3527364313698E-01 -5.9430950844851E-01
1.3300000000000E+00 -4.2588199295026E-01 -5.4904278620613E-01
1.3400000000000E+00 -4.1569868456191E-01 -5.0380683804745E-01
1.3500000000000E+00 -4.0478627362106E-01 -4.5872403393350E-01
1.3600000000000E+00 -3.9320777440504E-01 -4.1391510848566E-01
1.3700000000000E+00 -3.8102802140496E-01 -3.6950272195591E-01
1.3800000000000E+00 -3.6831132414318E-01 -3.2560566620228E-01
1.3900000000000E+00 -3.5512258717189E-01 -2.8234196904801E-01
1.4000000000000E+00 -3.4152755958548E-01 -2.3982931054283E-01
1.4100000000000E+00 -3.2758987875695E-01 -1.9817846986909E-01
1.4200000000000E+00 -3.1337487224327E-01 -1.5750201190006E-01
1.4300000000000E+00 -2.9894521260773E-01 -1.1790455773307E-01
1.4400000000000E+00 -2.8436324972606E-01 -7.9488169393850E-02
1.4500000000000E+00 -2.6969096723554E-01 -4.2352142000766E-02
1.4600000000000E+00 -2.5498628231798E-01 -6.5851909427309E-03
1.4700000000000E+00 -2.4030932328272E-01  2.7721097578927E-02
1.4800000000000E+00 -2.2571368827858E-01  6.0490834689986E-02
1.4900000000000E+00 -2.1125452868358E-01  9.1646591787878E-02
1.5000000000000E+00 -1.9698248527902E-01  1.2112222705002E-01
1.5100000000000E+00 -1.8294605051902E-01  1.4885775290886E-01
1.5200000000000E+00 -1.6919235832919E-01  1.7479780297639E-01
1.5300000000000E+00 -1.5576249173695E-01  1.9890109320154E-01
1.5400000000000E+00 -1.4269942646713E-01  2.2112425300775E-01
1.5500000000000E+00 -1.3003670548002E-01  2.4144466825396E-01
1.5600000000000E+00 -1.1781154402646E-01  2.5983404739801E-01
1.5700000000000E+00 -1.0605096835146E-01  2.7628609058411E-01
1.5800000000000E+00 -9.4784648231633E-02  2.9079088984892E-01
1.5900000000000E+00 -8.4033858623469E-02  3.0335667370428E-01
1.6000000000000E+00 -7.3820229453067E-02  3.1399252643655E-01
1.6100000000000E+00 -6.4159035281563E-02  3.2272142326109E-01
1.6200000000000E+00 -5.5063975360420E-02  3.2957077882239E-01
1.6300000000000E+00 -4.6544135774321E-02  3.3457835020285E-01
1.6400000000000E+00 -3.8605613536571E-02  3.3778873714073E-01
1.6500000000000E+00 -3.1251217566285E-02  3.3925424251858E-01
1.6600000000000E+00 -2.4479949556953E-02  3.3903511711454E-01
1.6700000000000E+00 -1.8288383325198E-02  3.3719762946193E-01
1.6800000000000E+00 -1.2669069799170E-02  3.3381585612197E-01
1.6900000000000E+00 -7.6125455990193E-03  3.2896904732560E-01
1.7000000000000E+00 -3.1056510059449E-03  3.2274309230739E-01
1.7100000000000E+00  8.6674021023212E-04  3.1522878487783E-01
1.7200000000000E+00  4.3227074800366E-03  3.0652173768672E-01
1.7300000000000E+00  7.2824714354064E-03  2.9672235242862E-01
1.7400000000000E+00  9.7682372662942E-03  2.8593391894148E-01
1.7500000000000E+00  1.1804542808738E-02  2.7426397945950E-01
1.7600000000000E+00  1.3416970805521E-02  2.6182161675185E-01
1.7700000000000E+00  1.4633381747162E-02  2.4871850018565E-01
1.7800000000000E+00  1.5482077519966E-02  2.3506788470842E-01
1.7900000000000E+00  1.5993033625866E-02  2.2098203272875E-01
1.8000000000000E+00  1.6196732103431E-02  2.0657707074648E-01
1.8100000000000E+00  1.6123870443447E-02  1.9196189420239E-01
1.8200000000000E+00  1.5806693272580E-02  1.7725449635819E-01
1.8300000000000E+00  1.5275269386817E-02  1.6255698556408E-01
1.8400000000000E+00  1.4562779335431E-02  1.4798607023079E-01
1.8500000000000E+00  1.3698069303838E-02  1.3363687794452E-01
1.8600000000000E+00  1.2713430317902E-02  1.1961832208753E-01
1.8700000000000E+00  1.1636760857903E-02  1.0602068598408E-01
1.8800000000000E+00  1.0497544556120E-02  9.2939338061336E-02
1.8900000000000E+00  9.3229328929963E-03  8.0460534945922E-02
1.9000000000000E+00  8.1377702028683E-03  6.8661059766999E-02
1.9100000000000E+00  6.9687328687153E-03  5.7624025003266E-02
1.9200000000000E+00  5.8345659181813E-03  4.7403877929618E-02
1.9300000000000E+00  4.7611314110733E-03  3.8079317861858E-02
1.9400000000000E+00  3.7618592008822E-03  2.9686075808820E-02
1.9500000000000E+00  2.8570350689326E-03  2.2282594718332E-02
1.9600000000000E+00  2.0588803770555E-03  1.5900033569535E-02
1.9700000000000E+00  1.3793653491307E-03  1.0568185983431E-02
1.9800000000000E+00  8.3022776825292E-04  6.3157721913588E-03
1.9900000000000E+00  4.1434049140333E-04  3.1420760540423E-03
2.0000000000000E+00  1.6435976011370E-04  1.2371901134294E-03
2.0100000000000E+00  2.8085230790820E-05  2.1099659538424E-04
2.0200000000000E+00 -2.4431389951297E-05 -1.8272333244639E-04
2.0300000000000E+00 -2.2301971204788E-05 -1.6793356947762E-04
2.0400000000000E+00  4.5927222640522E-08  2.8296028357037E-07
2.0500000000000E+00  1.4241700787212E-07  8.7743944910751E-07
2.0600000000000E+00  4.2436281776713E-08  2.6145239435001E-07
2.0700000000000E+00  0.0000000000000E+00  0.0000000000000E+00
2.0800000000000E+00  0.0000000000000E+00  0.0000000000000E+00
2.0900000000000E+00  0.0000000000000E+00  0.0000000000000E+00
2.1000000000000E+00  0.0000000000000E+00  0.0000000000000E+00
2.1100000000000E+00  0.0000000000000E+00  0.0000000000000E+00
2.1200000000000E+00  0.0000000000000E+00  0.0000000000000E+00
2.1300000000000E+00  0.0000000000000E+00  0.0000000000000E+00
2.1400000000000E+00  0.0000000000000E+00  0.0000000000000E+00
2.1500000000000E+00  0.0000000000000E+00  0.0000000000000E+00
2.1600000000000E+00  0.0000000000000E+00  0.0000000000000E+00
2.1700000000000E+00  0.0000000000000E+00  0.0000000000000E+00
2.1800000000000E+00  0.0000000000000E+00  0.0000000000000E+00
2.1900000000000E+00  0.0000000000000E+00  0.0000000000000E+00
2.2000000000000E+00  0.0000000000000E+00  0.0000000000000E+00
2.2100000000000E+00  0.0000000000000E+00  0.0000000000000E+00
2.2200000000000E+00  0.0000000000000E+00  0.0000000000000E+00
2.2300000000000E+00  0.0000000000000E+00  0.0000000000000E+00
2.2400000000000E+00  0.0000000000000E+00  0.0000000000000E+00
2.2500000000000E+00  0.0000000000000E+00  0.0000000000000E+00
2.2600000000000E+00  0.0000000000000E+00  0.0000000000000E+00
2.2700000000000E+00  0.0000000000000E+00  0.0000000000000E+00
2.2800000000000E+00  0.0000000000000E+00  0.0000000000000E+00
2.2900000000000E+00  0.0000000000000E+00  0.0000000000000E+00
2.3000000000000E+00  0.0000000000000E+00  0.0000000000000E+00
2.3100000000000E+00  0.0000000000000E+00  0.0000000000000E+00
2.3200000000000E+00  0.0000000000000E+00  0.0000000000000E+00
2.3300000000000E+00  0.0000000000000E+00  0.0000000000000E+00
2.3400000000000E+00  0.0000000000000E+00  0.0000000000000E+00
2.3500000000000E+00  0.0000000000000E+00  0.0000000000000E+00
2.3600000000000E+00  0.0000000000000E+00  0.0000000000000E+00
2.3700000000000E+00  0.0000000000000E+00  0.0000000000000E+00
2.3800000000000E+00  0.0000000000000E+00  0.0000000000000E+00
2.3900000000000E+00  0.0000000000000E+00  0.0000000000000E+00
2.4000000000000E+00  0.0000000000000E+00  0.0000000000000E+00
2.4100000000000E+00  0.0000000000000E+00  0.0000000000000E+00
2.4200000000000E+00  0.0000000000000E+00  0.0000000000000E+00
2.4300000000000E+00  0.0000000000000E+00  0.0000000000000E+00
2.4400000000000E+00  0.0000000000000E+00  0.0000000000000E+00
2.4500000000000E+00  0.0000000000000E+00  0.0000000000000E+00
2.4600000000000E+00  0.0000000000000E+00  0.0000000000000E+00
2.4700000000000E+00  0.0000000000000E+00  0.0000000000000E+00
2.4800000000000E+00  0.0000000000000E+00  0.0000000000000E+00
2.4900000000000E+00  0.0000000000000E+00  0.0000000000000E+00
2.5000000000000E+00  0.0000000000000E+00  0.0000000000000E+00
2.5100000000000E+00  0.0000000000000E+00  0.0000000000000E+00
2.5200000000000E+00  0.0000000000000E+00  0.0000000000000E+00
2.5300000000000E+00  0.0000000000000E+00  0.0000000000000E+00
2.5400000000000E+00  0.0000000000000E+00  0.0000000000000E+00
2.5500000000000E+00  0.0000000000000E+00  0.0000000000000E+00
2.5600000000000E+00  0.0000000000000E+00  0.0000000000000E+00
2.5700000000000E+00  0.0000000000000E+00  0.0000000000000E+00
2.5800000000000E+00  0.0000000000000E+00  0.0000000000000E+00
2.5900000000000E+00  0.0000000000000E+00  0.0000000000000E+00
2.6000000000000E+00  0.0000000000000E+00  0.0000000000000E+00
2.6100000000000E+00  0.0000000000000E+00  0.0000000000000E+00
2.6200000000000E+00  0.0000000000000E+00  0.0000000000000E+00
2.6300000000000E+00  0.0000000000000E+00  0.0000000000000E+00
2.6400000000000E+00  0.0000000000000E+00  0.0000000000000E+00
2.6500000000000E+00  0.0000000000000E+00  0.0000000000000E+00
2.6600000000000E+00  0.0000000000000E+00  0.0000000000000E+00
2.6700000000000E+00  0.0000000000000E+00  0.0000000000000E+00
2.6800000000000E+00  0.0000000000000E+00  0.0000000000000E+00
2.6900000000000E+00  0.0000000000000E+00  0.0000000000000E+00
2.7000000000000E+00  0.0000000000000E+00  0.0000000000000E+00
2.7100000000000E+00  0.0000000000000E+00  0.0000000000000E+00
2.7200000000000E+00  0.0000000000000E+00  0.0000000000000E+00
2.7300000000000E+00  0.0000000000000E+00  0.0000000000000E+00
2.7400000000000E+00  0.0000000000000E+00  0.0000000000000E+00
2.7500000000000E+00  0.0000000000000E+00  0.0000000000000E+00
2.7600000000000E+00  0.0000000000000E+00  0.0000000000000E+00
2.7700000000000E+00  0.0000000000000E+00  0.0000000000000E+00
2.7800000000000E+00  0.0000000000000E+00  0.0000000000000E+00
2.7900000000000E+00  0.0000000000000E+00  0.0000000000000E+00
2.8000000000000E+00  0.0000000000000E+00  0.0000000000000E+00
2.8100000000000E+00  0.0000000000000E+00  0.0000000000000E+00
2.8200000000000E+00  0.0000000000000E+00  0.0000000000000E+00
2.8300000000000E+00  0.0000000000000E+00  0.0000000000000E+00
2.8400000000000E+00  0.0000000000000E+00  0.0000000000000E+00
2.8500000000000E+00  0.0000000000000E+00  0.0000000000000E+00
2.8600000000000E+00  0.0000000000000E+00  0.0000000000000E+00
2.8700000000000E+00  0.0000000000000E+00  0.0000000000000E+00
2.8800000000000E+00  0.0000000000000E+00  0.0000000000000E+00
2.8900000000000E+00  0.0000000000000E+00  0.0000000000000E+00
2.9000000000000E+00  0.0000000000000E+00  0.0000000000000E+00
2.9100000000000E+00  0.0000000000000E+00  0.0000000000000E+00
2.9200000000000E+00  0.0000000000000E+00  0.0000000000000E+00
2.9300000000000E+00  0.0000000000000E+00  0.0000000000000E+00
2.9400000000000E+00  0.0000000000000E+00  0.0000000000000E+00
2.9500000000000E+00  0.0000000000000E+00  0.0000000000000E+00
2.9600000000000E+00  0.0000000000000E+00  0.0000000000000E+00
2.9700000000000E+00  0.0000000000000E+00  0.0000000000000E+00
2.9800000000000E+00  0.0000000000000E+00  0.0000000000000E+00
2.9900000000000E+00  0.0000000000000E+00  0.0000000000000E+00
3.0000000000000E+00  0.0000000000000E+00  0.0000000000000E+00
3.0100000000000E+00  0.0000000000000E+00  0.0000000000000E+00
3.0200000000000E+00  0.0000000000000E+00  0.0000000000000E+00
3.0300000000000E+00  0.0000000000000E+00  0.0000000000000E+00
3.0400000000000E+00  0.0000000000000E+00  0.0000000000000E+00
3.0500000000000E+00  0.0000000000000E+00  0.0000000000000E+00
3.0600000000000E+00  0.0000000000000E+00  0.0000000000000E+00
3.0700000000000E+00  0.0000000000000E+00  0.0000000000000E+00
3.0800000000000E+00  0.0000000000000E+00  0.0000000000000E+00
3.0900000000000E+00  0.0000000000000E+00  0.0000000000000E+00
3.1000000000000E+00  0.0000000000000E+00  0.0000000000000E+00
3.1100000000000E+00  0.0000000000000E+00  0.0000000000000E+00
3.1200000000000E+00  0.0000000000000E+00  0.0000000000000E+00
3.1300000000000E+00  0.0000000000000E+00  0.0000000000000E+00
3.1400000000000E+00  0.0000000000000E+00  0.0000000000000E+00
3.1500000000000E+00  0.0000000000000E+00  0.0000000000000E+00
3.1600000000000E+00  0.0000000000000E+00  0.0000000000000E+00
3.1700000000000E+00  0.0000000000000E+00  0.0000000000000E+00
3.1800000000000E+00  0.0000000000000E+00  0.0000000000000E+00
3.1900000000000E+00  0.0000000000000E+00  0.0000000000000E+00
3.2000000000000E+00  0.0000000000000E+00  0.0000000000000E+00
3.2100000000000E+00  0.0000000000000E+00  0.0000000000000E+00
3.2200000000000E+00  0.0000000000000E+00  0.0000000000000E+00
3.2300000000000E+00  0.0000000000000E+00  0.0000000000000E+00
3.2400000000000E+00  0.0000000000000E+00  0.0000000000000E+00
3.2500000000000E+00  0.0000000000000E+00  0.0000000000000E+00
3.2600000000000E+00  0.0000000000000E+00  0.0000000000000E+00
3.2700000000000E+00  0.0000000000000E+00  0.0000000000000E+00
3.2800000000000E+00  0.0000000000000E+00  0.0000000000000E+00
3.2900000000000E+00  0.0000000000000E+00  0.0000000000000E+00
3.3000000000000E+00  0.0000000000000E+00  0.0000000000000E+00
3.3100000000000E+00  0.0000000000000E+00  0.0000000000000E+00
3.3200000000000E+00  0.0000000000000E+00  0.0000000000000E+00
3.3300000000000E+00  0.0000000000000E+00  0.0000000000000E+00
3.3400000000000E+00  0.0000000000000E+00  0.0000000000000E+00
3.3500000000000E+00  0.0000000000000E+00  0.0000000000000E+00
3.3600000000000E+00  0.0000000000000E+00  0.0000000000000E+00
3.3700000000000E+00  0.0000000000000E+00  0.0000000000000E+00
3.3800000000000E+00  0.0000000000000E+00  0.0000000000000E+00
3.3900000000000E+00  0.0000000000000E+00  0.0000000000000E+00
3.4000000000000E+00  0.0000000000000E+00  0.0000000000000E+00
3.4100000000000E+00  0.0000000000000E+00  0.0000000000000E+00
3.4200000000000E+00  0.0000000000000E+00  0.0000000000000E+00
3.4300000000000E+00  0.0000000000000E+00  0.0000000000000E+00
3.4400000000000E+00  0.0000000000000E+00  0.0000000000000E+00
3.4500000000000E+00  0.0000000000000E+00  0.0000000000000E+00
3.4600000000000E+00  0.0000000000000E+00  0.0000000000000E+00
3.4700000000000E+00  0.0000000000000E+00  0.0000000000000E+00
3.4800000000000E+00  0.0000000000000E+00  0.0000000000000E+00
3.4900000000000E+00  0.0000000000000E+00  0.0000000000000E+00
3.5000000000000E+00  0.0000000000000E+00  0.0000000000000E+00
3.5100000000000E+00  0.0000000000000E+00  0.0000000000000E+00
3.5200000000000E+00  0.0000000000000E+00  0.0000000000000E+00
3.5300000000000E+00  0.0000000000000E+00  0.0000000000000E+00
3.5400000000000E+00  0.0000000000000E+00  0.0000000000000E+00
3.5500000000000E+00  0.0000000000000E+00  0.0000000000000E+00
3.5600000000000E+00  0.0000000000000E+00  0.0000000000000E+00
3.5700000000000E+00  0.0000000000000E+00  0.0000000000000E+00
3.5800000000000E+00  0.0000000000000E+00  0.0000000000000E+00
3.5900000000000E+00  0.0000000000000E+00  0.0000000000000E+00
3.6000000000000E+00  0.0000000000000E+00  0.0000000000000E+00
3.6100000000000E+00  0.0000000000000E+00  0.0000000000000E+00
3.6200000000000E+00  0.0000000000000E+00  0.0000000000000E+00
3.6300000000000E+00  0.0000000000000E+00  0.0000000000000E+00
3.6400000000000E+00  0.0000000000000E+00  0.0000000000000E+00
3.6500000000000E+00  0.0000000000000E+00  0.0000000000000E+00
3.6600000000000E+00  0.0000000000000E+00  0.0000000000000E+00
3.6700000000000E+00  0.0000000000000E+00  0.0000000000000E+00
3.6800000000000E+00  0.0000000000000E+00  0.0000000000000E+00
3.6900000000000E+00  0.0000000000000E+00  0.0000000000000E+00
3.7000000000000E+00  0.0000000000000E+00  0.0000000000000E+00
3.7100000000000E+00  0.0000000000000E+00  0.0000000000000E+00
3.7200000000000E+00  0.0000000000000E+00  0.0000000000000E+00
3.7300000000000E+00  0.0000000000000E+00  0.0000000000000E+00
3.7400000000000E+00  0.0000000000000E+00  0.0000000000000E+00
3.7500000000000E+00  0.0000000000000E+00  0.0000000000000E+00
3.7600000000000E+00  0.0000000000000E+00  0.0000000000000E+00
3.7700000000000E+00  0.0000000000000E+00  0.0000000000000E+00
3.7800000000000E+00  0.0000000000000E+00  0.0000000000000E+00
3.7900000000000E+00  0.0000000000000E+00  0.0000000000000E+00
3.8000000000000E+00  0.0000000000000E+00  0.0000000000000E+00
3.8100000000000E+00  0.0000000000000E+00  0.0000000000000E+00
3.8200000000000E+00  0.0000000000000E+00  0.0000000000000E+00
3.8300000000000E+00  0.0000000000000E+00  0.0000000000000E+00
3.8400000000000E+00  0.0000000000000E+00  0.0000000000000E+00
3.8500000000000E+00  0.0000000000000E+00  0.0000000000000E+00
3.8600000000000E+00  0.0000000000000E+00  0.0000000000000E+00
3.8700000000000E+00  0.0000000000000E+00  0.0000000000000E+00
3.8800000000000E+00  0.0000000000000E+00  0.0000000000000E+00
3.8900000000000E+00  0.0000000000000E+00  0.0000000000000E+00
3.9000000000000E+00  0.0000000000000E+00  0.0000000000000E+00
3.9100000000000E+00  0.0000000000000E+00  0.0000000000000E+00
3.9200000000000E+00  0.0000000000000E+00  0.0000000000000E+00
3.9300000000000E+00  0.0000000000000E+00  0.0000000000000E+00
3.9400000000000E+00  0.0000000000000E+00  0.0000000000000E+00
3.9500000000000E+00  0.0000000000000E+00  0.0000000000000E+00
3.9600000000000E+00  0.0000000000000E+00  0.0000000000000E+00
3.9700000000000E+00  0.0000000000000E+00  0.0000000000000E+00
3.9800000000000E+00  0.0000000000000E+00  0.0000000000000E+00
3.9900000000000E+00  0.0000000000000E+00  0.0000000000000E+00
4.0000000000000E+00  0.0000000000000E+00  0.0000000000000E+00
4.0100000000000E+00  0.0000000000000E+00  0.0000000000000E+00
4.0200000000000E+00  0.0000000000000E+00  0.0000000000000E+00
4.0300000000000E+00  0.0000000000000E+00  0.0000000000000E+00
4.0400000000000E+00  0.0000000000000E+00  0.0000000000000E+00
4.0500000000000E+00  0.0000000000000E+00  0.0000000000000E+00
4.0600000000000E+00  0.0000000000000E+00  0.0000000000000E+00
4.0700000000000E+00  0.0000000000000E+00  0.0000000000000E+00
4.0800000000000E+00  0.0000000000000E+00  0.0000000000000E+00
4.0900000000000E+00  0.0000000000000E+00  0.0000000000000E+00
4.1000000000000E+00  0.0000000000000E+00  0.0000000000000E+00
4.1100000000000E+00  0.0000000000000E+00  0.0000000000000E+00
4.1200000000000E+00  0.0000000000000E+00  0.0000000000000E+00
4.1300000000000E+00  0.0000000000000E+00  0.0000000000000E+00
4.1400000000000E+00  0.0000000000000E+00  0.0000000000000E+00
4.1500000000000E+00  0.0000000000000E+00  0.0000000000000E+00
4.1600000000000E+00  0.0000000000000E+00  0.0000000000000E+00
4.1700000000000E+00  0.0000000000000E+00  0.0000000000000E+00
4.1800000000000E+00  0.0000000000000E+00  0.0000000000000E+00
4.1900000000000E+00  0.0000000000000E+00  0.0000000000000E+00
4.2000000000000E+00  0.0000000000000E+00  0.0000000000000E+00
4.2100000000000E+00  0.0000000000000E+00  0.0000000000000E+00
4.2200000000000E+00  0.0000000000000E+00  0.0000000000000E+00
4.2300000000000E+00  0.0000000000000E+00  0.0000000000000E+00
4.2400000000000E+00  0.0000000000000E+00  0.0000000000000E+00
4.2500000000000E+00  0.0000000000000E+00  0.0000000000000E+00
4.2600000000000E+00  0.0000000000000E+00  0.0000000000000E+00
4.2700000000000E+00  0.0000000000000E+00  0.0000000000000E+00
4.2800000000000E+00  0.0000000000000E+00  0.0000000000000E+00
4.2900000000000E+00  0.0000000000000E+00  0.0000000000000E+00
4.3000000000000E+00  0.0000000000000E+00  0.0000000000000E+00
4.3100000000000E+00  0.0000000000000E+00  0.0000000000000E+00
4.3200000000000E+00  0.0000000000000E+00  0.0000000000000E+00
4.3300000000000E+00  0.0000000000000E+00  0.0000000000000E+00
4.3400000000000E+00  0.0000000000000E+00  0.0000000000000E+00
4.3500000000000E+00  0.0000000000000E+00  0.0000000000000E+00
4.3600000000000E+00  0.0000000000000E+00  0.0000000000000E+00
4.3700000000000E+00  0.0000000000000E+00  0.0000000000000E+00
4.3800000000000E+00  0.0000000000000E+00  0.0000000000000E+00
4.3900000000000E+00  0.0000000000000E+00  0.0000000000000E+00
4.4000000000000E+00  0.0000000000000E+00  0.0000000000000E+00
4.4100000000000E+00  0.0000000000000E+00  0.0000000000000E+00
4.4200000000000E+00  0.0000000000000E+00  0.0000000000000E+00
4.4300000000000E+00  0.0000000000000E+00  0.0000000000000E+00
4.4400000000000E+00  0.0000000000000E+00  0.0000000000000E+00
4.4500000000000E+00  0.0000000000000E+00  0.0000000000000E+00
4.4600000000000E+00  0.0000000000000E+00  0.0000000000000E+00
4.4700000000000E+00  0.0000000000000E+00  0.0000000000000E+00
4.4800000000000E+00  0.0000000000000E+00  0.0000000000000E+00
4.4900000000000E+00  0.0000000000000E+00  0.0000000000000E+00
4.5000000000000E+00  0.0000000000000E+00  0.0000000000000E+00
4.5100000000000E+00  0.0000000000000E+00  0.0000000000000E+00
4.5200000000000E+00  0.0000000000000E+00  0.0000000000000E+00
4.5300000000000E+00  0.0000000000000E+00  0.0000000000000E+00
4.5400000000000E+00  0.0000000000000E+00  0.0000000000000E+00
4.5500000000000E+00  0.0000000000000E+00  0.0000000000000E+00
4.5600000000000E+00  0.0000000000000E+00  0.0000000000000E+00
4.5700000000000E+00  0.0000000000000E+00  0.0000000000000E+00
4.5800000000000E+00  0.0000000000000E+00  0.0000000000000E+00
4.5900000000000E+00  0.0000000000000E+00  0.0000000000000E+00
4.6000000000000E+00  0.0000000000000E+00  0.0000000000000E+00
4.6100000000000E+00  0.0000000000000E+00  0.0000000000000E+00