# 
#  This pseudopotential file has been produced using the code
#  ONCVPSP (Optimized Norm-Conservinng Vanderbilt PSeudopotential)
#  scalar-relativistic version 2.1.1, 03/26/2014 by D. R. Hamann
#  as distributed by Mat-Sim Research at www.mat-simresearch.com.
#  Reference:
#    D. R. Hamann, Phys. Rev. B 88, 085117 (2013)
#    DOI:https://doi.org/10.1103/PhysRevB.88.085117
#
#
#  Pseudopotential generation was done by M. Schlipf and F. Gygi using
#  the input parameters obtained from their optimization algorithm.
#  Reference:
#    M. Schlipf and F. Gygi, Computer Physics Communications (2015)
#    DOI: 10.1016/j.cpc.2015.05.011
#    http://dx.doi.org/10.1016/j.cpc.2015.05.011
#    http://www.quantum-simulation.org
#  License:
#  This work is licensed under the Creative Commons Attribution-ShareAlike
#  4.0 International License. To view a copy of this license, visit
#  http://creativecommons.org/licenses/by-sa/4.0/ or send a letter to
#  Creative Commons, PO Box 1866, Mountain View, CA 94042, USA.
#
#
#  Format:
#    The format of this file has been adapted to match MGmol pseudopotential
#    parser using the script convertONCVPSP_SG15.py
# 
# 
Mo_ONCV_PBE-1
#
color
#radii of balls and covalent bonds
-1.  -1.
# Nlcc flag
0
# Atomic number
42
# Atomic mass
95.95999908
# Number of valence electrons
14
#Gaussian core charge parameter rc
1.0
# Number of potentials
4
# l-value for state which is local, then type of potential format
3 3
# Local potential radius
3.2
# Non-local potential radius
3.2
# number of points in radial grid
602
# VANDERBILT-KLEINMAN-BYLANDER PROJECTORs
# l, nproj
0 2     0.5624397899E+01     0.1072308441E+01 
1 2     0.2280822040E+01     0.1467015837E+00 
2 2    -0.3555650684E+01    -0.2037903952E+00 
# l= 0
0.0 -4.9038444106 0.80345547802 
0.01 -4.9029187849 0.80310241284 
0.02 -4.9001402128 0.80204626157 
0.03 -4.8955103779 0.80028394454 
0.04 -4.889030964 0.79781238211 
0.05 -4.8807043396 0.79462729802 
0.06 -4.8705335691 0.79072325458 
0.07 -4.8585224278 0.78609369746 
0.08 -4.8446754185 0.78073101017 
0.09 -4.8289977925 0.77462657773 
0.1 -4.811495572 0.76777085943 
0.11 -4.7921755767 0.76015347027 
0.12 -4.7710454512 0.75176327067 
0.13 -4.7481136963 0.74258846419 
0.14 -4.7233897012 0.73261670254 
0.15 -4.6968837783 0.72183519773 
0.16 -4.6686071998 0.71023084056 
0.17 -4.6385722351 0.69779032509 
0.18 -4.6067921901 0.68450027833 
0.19 -4.5732814472 0.67034739473 
0.2 -4.5380555061 0.6553185747 
0.21 -4.5011310251 0.63940106655 
0.22 -4.4625258621 0.62258261109 
0.23 -4.4222591162 0.60485158843 
0.24 -4.3803511685 0.58619716595 
0.25 -4.3368237214 0.56660944648 
0.26 -4.2916998391 0.54607961762 
0.27 -4.2450039842 0.52460009851 
0.28 -4.1967620539 0.50216468568 
0.29 -4.1470014143 0.47876869679 
0.3 -4.0957509326 0.45440911092 
0.31 -4.0430410061 0.4290847052 
0.32 -3.9889035892 0.40279618665 
0.33 -3.933372214 0.37554631465 
0.34 -3.8764820172 0.34734003136 
0.35 -3.8182697469 0.318184561 
0.36 -3.7587737852 0.28808953175 
0.37 -3.6980341463 0.25706705735 
0.38 -3.6360924885 0.22513183984 
0.39 -3.5729921107 0.19230124485 
0.4 -3.5087779452 0.15859536934 
0.41 -3.4434965485 0.12403710343 
0.42 -3.3771960855 0.088652179429 
0.43 -3.3099263086 0.052469209577 
0.44 -3.2417385312 0.015519712054 
0.45 -3.1726855955 -0.022161874946 
0.46 -3.1028218352 -0.060538191465 
0.47 -3.0322030319 -0.09956896676 
0.48 -2.9608863658 -0.13921104355 
0.49 -2.8889303543 -0.17941842915 
0.5 -2.8163948102 -0.22014230424 
0.51 -2.7433407588 -0.26133112145 
0.52 -2.6698303618 -0.30293069241 
0.53 -2.595926861 -0.34488422615 
0.54 -2.5216944778 -0.38713247196 
0.55 -2.4471983249 -0.42961383715 
0.56 -2.3725043306 -0.47226446265 
0.57 -2.2976791129 -0.5150184435 
0.58 -2.2227899073 -0.55780788255 
0.59 -2.1479044315 -0.60056314586 
0.6 -2.0730907938 -0.64321295889 
0.61 -1.9984173668 -0.68568463276 
0.62 -1.9239526712 -0.72790425379 
0.63 -1.8497652532 -0.76979684942 
0.64 -1.77592356 -0.811286643 
0.65 -1.7024958122 -0.85229724242 
0.66 -1.629549865 -0.89275186555 
0.67 -1.5571530861 -0.93257358051 
0.68 -1.4853722336 -0.97168552432 
0.69 -1.4142732849 -1.0100111579 
0.7 -1.3439213294 -1.0474745004 
0.71 -1.2743804304 -1.0840003704 
0.72 -1.2057134888 -1.1195146316 
0.73 -1.1379821319 -1.1539444121 
0.74 -1.0712465125 -1.1872184238 
0.75 -1.0055652429 -1.2192671378 
0.76 -0.9409952465 -1.2500230438 
0.77 -0.87759163265 -1.279420887 
0.78 -0.81540757334 -1.3073978994 
0.79 -0.75449418435 -1.3338940265 
0.8 -0.69490041024 -1.3588521465 
0.81 -0.63667291394 -1.3822182821 
0.82 -0.57985597137 -1.4039418033 
0.83 -0.5244913714 -1.4239756209 
0.84 -0.47061832168 -1.4422763697 
0.85 -0.41827336052 -1.4588045796 
0.86 -0.36749027535 -1.4735248358 
0.87 -0.31830002798 -1.4864059249 
0.88 -0.27073068696 -1.4974209689 
0.89 -0.22480736744 -1.5065475435 
0.9 -0.18055217869 -1.5137677828 
0.91 -0.13798417968 -1.5190684679 
0.92 -0.097119342813 -1.5224411 
0.93 -0.057970526209 -1.5238819566 
0.94 -0.020547454671 -1.5233921309 
0.95 0.015143290476 -1.5209775541 
0.96 0.049098272477 -1.5166490001 
0.97 0.081317177728 -1.510422051 
0.98 0.11180272105 -1.5023169484 
0.99 0.14056093617 -1.4923590303 
1.0 0.1676008202 -1.480578172 
1.01 0.19293439278 -1.4670088608 
1.02 0.21657664321 -1.4516900954 
1.03 0.23854546861 -1.4346652673 
1.04 0.25886142585 -1.4159817648 
1.05 0.27754820376 -1.3956916415 
1.06 0.29463204897 -1.3738507175 
1.07 0.31014178028 -1.3505185629 
1.08 0.32410869517 -1.3257583164 
1.09 0.33656628167 -1.2996362385 
1.1 0.3475507912 -1.2722224395 
1.11 0.35710041399 -1.2435896562 
1.12 0.36525536698 -1.2138133166 
1.13 0.37205758177 -1.1829710837 
1.14 0.37755118945 -1.1511433625 
1.15 0.38178182982 -1.1184123119 
1.16 0.38479657196 -1.0848616799 
1.17 0.38664370891 -1.0505765351 
1.18 0.38737316127 -1.0156434512 
1.19 0.38703568186 -0.9801495837 
1.2 0.38568284675 -0.94418264187 
1.21 0.3833671792 -0.90783074851 
1.22 0.38014179772 -0.87118188233 
1.23 0.37606017785 -0.83432375736 
1.24 0.37117618383 -0.79734365991 
1.25 0.3655438265 -0.76032764902 
1.26 0.3592170689 -0.7233608518 
1.27 0.35224984181 -0.68652727753 
1.28 0.34469560849 -0.649908451 
1.29 0.33660749234 -0.61358453988 
1.3 0.32803815609 -0.57763374869 
1.31 0.31903917918 -0.54213070907 
1.32 0.30966166309 -0.50714858741 
1.33 0.29995560596 -0.47275717618 
1.34 0.28996953345 -0.43902224018 
1.35 0.27975152356 -0.40600828682 
1.36 0.26934745965 -0.37377404923 
1.37 0.25880202116 -0.34237531031 
1.38 0.24815899856 -0.31186555629 
1.39 0.23745915157 -0.28229098011 
1.4 0.22674286709 -0.25369691555 
1.41 0.21604781601 -0.22612230756 
1.42 0.20540966481 -0.1996015942 
1.43 0.19486332744 -0.17416744136 
1.44 0.18443954402 -0.14984326893 
1.45 0.17416918461 -0.12665279458 
1.46 0.1640791293 -0.10461104905 
1.47 0.15419490761 -0.083730245183 
1.48 0.14454009489 -0.064018390988 
1.49 0.13513444196 -0.045475569896 
1.5 0.1259980975 -0.028102633611 
1.51 0.11714534909 -0.011888472311 
1.52 0.10859163905 0.0031756710258 
1.53 0.10034705441 0.017109327267 
1.54 0.092421500346 0.029932288808 
1.55 0.08482115909 0.041671909782 
1.56 0.077550761655 0.052357394802 
1.57 0.070613363102 0.062021100592 
1.58 0.064009900591 0.070697134993 
1.59 0.05774119816 0.078419866191 
1.6 0.051805210463 0.085226168324 
1.61 0.046200591041 0.091152400656 
1.62 0.040922767298 0.096237380756 
1.63 0.035968369 0.10051913883 
1.64 0.031330752166 0.10403766658 
1.65 0.027004639736 0.10683228512 
1.66 0.022981799218 0.10894342852 
1.67 0.019255216866 0.11041123078 
1.68 0.015815445836 0.11127595964 
1.69 0.012654035391 0.11157802043 
1.7 0.0097605863638 0.11135695801 
1.71 0.0071255236527 0.11065295134 
1.72 0.0047377690201 0.10950424819 
1.73 0.0025869002873 0.10795038288 
1.74 0.00066145352903 0.10602780573 
1.75 -0.0010496329379 0.10377482717 
1.76 -0.0025579096274 0.10122586703 
1.77 -0.0038748286806 0.098417383668 
1.78 -0.0050118351362 0.095381622031 
1.79 -0.0059804850936 0.092152572083 
1.8 -0.0067919898591 0.088760264794 
1.81 -0.0074577100279 0.085235608016 
1.82 -0.0079885507644 0.081606492558 
1.83 -0.0083953742097 0.07790015564 
1.84 -0.0086887553104 0.074142501272 
1.85 -0.0088787652191 0.0703565807 
1.86 -0.0089756567402 0.066566489135 
1.87 -0.0089884499014 0.06279071585 
1.88 -0.0089270902115 0.059051675732 
1.89 -0.0087995249283 0.055363779909 
1.9 -0.0086148514807 0.051745833085 
1.91 -0.0083804352425 0.0482103448 
1.92 -0.0081040855952 0.044771313646 
1.93 -0.0077928006052 0.041440069164 
1.94 -0.007452878824 0.038225549132 
1.95 -0.0070910598794 0.035138163575 
1.96 -0.0067121468428 0.032182285734 
1.97 -0.0063223270375 0.029366450902 
1.98 -0.0059254972568 0.026692531815 
1.99 -0.0055264407968 0.024164882972 
2.0 -0.0051289603372 0.021785223402 
2.01 -0.0047361677202 0.019553371607 
2.02 -0.0043518393055 0.017470895487 
2.03 -0.0039777486459 0.015534351519 
2.04 -0.0036169092532 0.013743267292 
2.05 -0.0032707665713 0.012093607009 
2.06 -0.0029409185433 0.010581618225 
2.07 -0.0026289718913 0.0092036242061 
2.08 -0.0023352691443 0.0079534232495 
2.09 -0.002061122564 0.006826576424 
2.1 -0.0018064452237 0.0058163491204 
2.11 -0.001571500162 0.0049164907667 
2.12 -0.001356454563 0.0041206939911 
2.13 -0.0011606578213 0.0034217192397 
2.14 -0.00098408963116 0.0028128094965 
2.15 -0.00082589525226 0.0022869084663 
2.16 -0.00068536601767 0.0018369109613 
2.17 -0.00056185628331 0.001455753251 
2.18 -0.00045420773119 0.001136905778 
2.19 -0.00036156034823 0.00087319591087 
2.2 -0.00028280486585 0.00065850928337 
2.21 -0.0002167788745 0.00048692023301 
2.22 -0.00016241560379 0.00035153294595 
2.23 -0.00011850545923 0.00024801526169 
2.24 -8.3875700916e-05 0.00017065736697 
2.25 -5.7369175375e-05 0.00011444090919 
2.26 -3.7866729422e-05 7.6033345819e-05 
2.27 -2.4170337255e-05 5.0358836354e-05 
2.28 -1.523284516e-05 3.4751832403e-05 
2.29 -1.002131571e-05 2.6773901146e-05 
2.3 -7.498914389e-06 2.3082227014e-05 
2.31 -6.5629405585e-06 2.1730397706e-05 
2.32 -5.6677899904e-06 1.9028005363e-05 
2.33 -3.2373082065e-06 1.119823921e-05 
2.34 -9.8704615186e-07 3.4904240761e-06 
2.35 2.7085241958e-07 -9.0104446442e-07 
2.36 3.9458569656e-07 -1.3126678291e-06 
2.37 1.304013012e-07 -4.3380587399e-07 
2.38 0.0 0.0 
2.39 0.0 0.0 
2.4 0.0 0.0 
2.41 0.0 0.0 
2.42 0.0 0.0 
2.43 0.0 0.0 
2.44 0.0 0.0 
2.45 0.0 0.0 
2.46 0.0 0.0 
2.47 0.0 0.0 
2.48 0.0 0.0 
2.49 0.0 0.0 
2.5 0.0 0.0 
2.51 0.0 0.0 
2.52 0.0 0.0 
2.53 0.0 0.0 
2.54 0.0 0.0 
2.55 0.0 0.0 
2.56 0.0 0.0 
2.57 0.0 0.0 
2.58 0.0 0.0 
2.59 0.0 0.0 
2.6 0.0 0.0 
2.61 0.0 0.0 
2.62 0.0 0.0 
2.63 0.0 0.0 
2.64 0.0 0.0 
2.65 0.0 0.0 
2.66 0.0 0.0 
2.67 0.0 0.0 
2.68 0.0 0.0 
2.69 0.0 0.0 
2.7 0.0 0.0 
2.71 0.0 0.0 
2.72 0.0 0.0 
2.73 0.0 0.0 
2.74 0.0 0.0 
2.75 0.0 0.0 
2.76 0.0 0.0 
2.77 0.0 0.0 
2.78 0.0 0.0 
2.79 0.0 0.0 
2.8 0.0 0.0 
2.81 0.0 0.0 
2.82 0.0 0.0 
2.83 0.0 0.0 
2.84 0.0 0.0 
2.85 0.0 0.0 
2.86 0.0 0.0 
2.87 0.0 0.0 
2.88 0.0 0.0 
2.89 0.0 0.0 
2.9 0.0 0.0 
2.91 0.0 0.0 
2.92 0.0 0.0 
2.93 0.0 0.0 
2.94 0.0 0.0 
2.95 0.0 0.0 
2.96 0.0 0.0 
2.97 0.0 0.0 
2.98 0.0 0.0 
2.99 0.0 0.0 
3.0 0.0 0.0 
3.01 0.0 0.0 
3.02 0.0 0.0 
3.03 0.0 0.0 
3.04 0.0 0.0 
3.05 0.0 0.0 
3.06 0.0 0.0 
3.07 0.0 0.0 
3.08 0.0 0.0 
3.09 0.0 0.0 
3.1 0.0 0.0 
3.11 0.0 0.0 
3.12 0.0 0.0 
3.13 0.0 0.0 
3.14 0.0 0.0 
3.15 0.0 0.0 
3.16 0.0 0.0 
3.17 0.0 0.0 
3.18 0.0 0.0 
3.19 0.0 0.0 
3.2 0.0 0.0 
3.21 0.0 0.0 
3.22 0.0 0.0 
3.23 0.0 0.0 
3.24 0.0 0.0 
3.25 0.0 0.0 
3.26 0.0 0.0 
3.27 0.0 0.0 
3.28 0.0 0.0 
3.29 0.0 0.0 
3.3 0.0 0.0 
3.31 0.0 0.0 
3.32 0.0 0.0 
3.33 0.0 0.0 
3.34 0.0 0.0 
3.35 0.0 0.0 
3.36 0.0 0.0 
3.37 0.0 0.0 
3.38 0.0 0.0 
3.39 0.0 0.0 
3.4 0.0 0.0 
3.41 0.0 0.0 
3.42 0.0 0.0 
3.43 0.0 0.0 
3.44 0.0 0.0 
3.45 0.0 0.0 
3.46 0.0 0.0 
3.47 0.0 0.0 
3.48 0.0 0.0 
3.49 0.0 0.0 
3.5 0.0 0.0 
3.51 0.0 0.0 
3.52 0.0 0.0 
3.53 0.0 0.0 
3.54 0.0 0.0 
3.55 0.0 0.0 
3.56 0.0 0.0 
3.57 0.0 0.0 
3.58 0.0 0.0 
3.59 0.0 0.0 
3.6 0.0 0.0 
3.61 0.0 0.0 
3.62 0.0 0.0 
3.63 0.0 0.0 
3.64 0.0 0.0 
3.65 0.0 0.0 
3.66 0.0 0.0 
3.67 0.0 0.0 
3.68 0.0 0.0 
3.69 0.0 0.0 
3.7 0.0 0.0 
3.71 0.0 0.0 
3.72 0.0 0.0 
3.73 0.0 0.0 
3.74 0.0 0.0 
3.75 0.0 0.0 
3.76 0.0 0.0 
3.77 0.0 0.0 
3.78 0.0 0.0 
3.79 0.0 0.0 
3.8 0.0 0.0 
3.81 0.0 0.0 
3.82 0.0 0.0 
3.83 0.0 0.0 
3.84 0.0 0.0 
3.85 0.0 0.0 
3.86 0.0 0.0 
3.87 0.0 0.0 
3.88 0.0 0.0 
3.89 0.0 0.0 
3.9 0.0 0.0 
3.91 0.0 0.0 
3.92 0.0 0.0 
3.93 0.0 0.0 
3.94 0.0 0.0 
3.95 0.0 0.0 
3.96 0.0 0.0 
3.97 0.0 0.0 
3.98 0.0 0.0 
3.99 0.0 0.0 
4.0 0.0 0.0 
4.01 0.0 0.0 
4.02 0.0 0.0 
4.03 0.0 0.0 
4.04 0.0 0.0 
4.05 0.0 0.0 
4.06 0.0 0.0 
4.07 0.0 0.0 
4.08 0.0 0.0 
4.09 0.0 0.0 
4.1 0.0 0.0 
4.11 0.0 0.0 
4.12 0.0 0.0 
4.13 0.0 0.0 
4.14 0.0 0.0 
4.15 0.0 0.0 
4.16 0.0 0.0 
4.17 0.0 0.0 
4.18 0.0 0.0 
4.19 0.0 0.0 
4.2 0.0 0.0 
4.21 0.0 0.0 
4.22 0.0 0.0 
4.23 0.0 0.0 
4.24 0.0 0.0 
4.25 0.0 0.0 
4.26 0.0 0.0 
4.27 0.0 0.0 
4.28 0.0 0.0 
4.29 0.0 0.0 
4.3 0.0 0.0 
4.31 0.0 0.0 
4.32 0.0 0.0 
4.33 0.0 0.0 
4.34 0.0 0.0 
4.35 0.0 0.0 
4.36 0.0 0.0 
4.37 0.0 0.0 
4.38 0.0 0.0 
4.39 0.0 0.0 
4.4 0.0 0.0 
4.41 0.0 0.0 
4.42 0.0 0.0 
4.43 0.0 0.0 
4.44 0.0 0.0 
4.45 0.0 0.0 
4.46 0.0 0.0 
4.47 0.0 0.0 
4.48 0.0 0.0 
4.49 0.0 0.0 
4.5 0.0 0.0 
4.51 0.0 0.0 
4.52 0.0 0.0 
4.53 0.0 0.0 
4.54 0.0 0.0 
4.55 0.0 0.0 
4.56 0.0 0.0 
4.57 0.0 0.0 
4.58 0.0 0.0 
4.59 0.0 0.0 
4.6 0.0 0.0 
4.61 0.0 0.0 
4.62 0.0 0.0 
4.63 0.0 0.0 
4.64 0.0 0.0 
4.65 0.0 0.0 
4.66 0.0 0.0 
4.67 0.0 0.0 
4.68 0.0 0.0 
4.69 0.0 0.0 
4.7 0.0 0.0 
4.71 0.0 0.0 
4.72 0.0 0.0 
4.73 0.0 0.0 
4.74 0.0 0.0 
4.75 0.0 0.0 
4.76 0.0 0.0 
4.77 0.0 0.0 
4.78 0.0 0.0 
4.79 0.0 0.0 
4.8 0.0 0.0 
4.81 0.0 0.0 
4.82 0.0 0.0 
4.83 0.0 0.0 
4.84 0.0 0.0 
4.85 0.0 0.0 
4.86 0.0 0.0 
4.87 0.0 0.0 
4.88 0.0 0.0 
4.89 0.0 0.0 
4.9 0.0 0.0 
4.91 0.0 0.0 
4.92 0.0 0.0 
4.93 0.0 0.0 
4.94 0.0 0.0 
4.95 0.0 0.0 
4.96 0.0 0.0 
4.97 0.0 0.0 
4.98 0.0 0.0 
4.99 0.0 0.0 
5.0 0.0 0.0 
5.01 0.0 0.0 
5.02 0.0 0.0 
5.03 0.0 0.0 
5.04 0.0 0.0 
5.05 0.0 0.0 
5.06 0.0 0.0 
5.07 0.0 0.0 
5.08 0.0 0.0 
5.09 0.0 0.0 
5.1 0.0 0.0 
5.11 0.0 0.0 
5.12 0.0 0.0 
5.13 0.0 0.0 
5.14 0.0 0.0 
5.15 0.0 0.0 
5.16 0.0 0.0 
5.17 0.0 0.0 
5.18 0.0 0.0 
5.19 0.0 0.0 
5.2 0.0 0.0 
5.21 0.0 0.0 
5.22 0.0 0.0 
5.23 0.0 0.0 
5.24 0.0 0.0 
5.25 0.0 0.0 
5.26 0.0 0.0 
5.27 0.0 0.0 
5.28 0.0 0.0 
5.29 0.0 0.0 
5.3 0.0 0.0 
5.31 0.0 0.0 
5.32 0.0 0.0 
5.33 0.0 0.0 
5.34 0.0 0.0 
5.35 0.0 0.0 
5.36 0.0 0.0 
5.37 0.0 0.0 
5.38 0.0 0.0 
5.39 0.0 0.0 
5.4 0.0 0.0 
5.41 0.0 0.0 
5.42 0.0 0.0 
5.43 0.0 0.0 
5.44 0.0 0.0 
5.45 0.0 0.0 
5.46 0.0 0.0 
5.47 0.0 0.0 
5.48 0.0 0.0 
5.49 0.0 0.0 
5.5 0.0 0.0 
5.51 0.0 0.0 
5.52 0.0 0.0 
5.53 0.0 0.0 
5.54 0.0 0.0 
5.55 0.0 0.0 
5.56 0.0 0.0 
5.57 0.0 0.0 
5.58 0.0 0.0 
5.59 0.0 0.0 
5.6 0.0 0.0 
5.61 0.0 0.0 
5.62 0.0 0.0 
5.63 0.0 0.0 
5.64 0.0 0.0 
5.65 0.0 0.0 
5.66 0.0 0.0 
5.67 0.0 0.0 
5.68 0.0 0.0 
5.69 0.0 0.0 
5.7 0.0 0.0 
5.71 0.0 0.0 
5.72 0.0 0.0 
5.73 0.0 0.0 
5.74 0.0 0.0 
5.75 0.0 0.0 
5.76 0.0 0.0 
5.77 0.0 0.0 
5.78 0.0 0.0 
5.79 0.0 0.0 
5.8 0.0 0.0 
5.81 0.0 0.0 
5.82 0.0 0.0 
5.83 0.0 0.0 
5.84 0.0 0.0 
5.85 0.0 0.0 
5.86 0.0 0.0 
5.87 0.0 0.0 
5.88 0.0 0.0 
5.89 0.0 0.0 
5.9 0.0 0.0 
5.91 0.0 0.0 
5.92 0.0 0.0 
5.93 0.0 0.0 
5.94 0.0 0.0 
5.95 0.0 0.0 
5.96 0.0 0.0 
5.97 0.0 0.0 
5.98 0.0 0.0 
5.99 0.0 0.0 
6.0 0.0 0.0 
6.01 0.0 0.0 
# l= 1
0.0 0.0 0.0 
0.01 0.096492461067 0.009122644008 
0.02 0.19285333688 0.018216435692 
0.03 0.28895130189 0.027252642178 
0.04 0.38465554922 0.03620276845 
0.05 0.47983604823 0.045038673647 
0.06 0.57436379995 0.053732684244 
0.07 0.66811108968 0.062257703118 
0.08 0.76095173607 0.070587313539 
0.09 0.85276133606 0.078695877171 
0.1 0.94341750491 0.086558625252 
0.11 1.0328001109 0.094151742135 
0.12 1.1207915036 0.10145244049 
0.13 1.207276736 0.10843902754 
0.14 1.292143779 0.11509096173 
0.15 1.3752837282 0.12138889942 
0.16 1.4565910024 0.12731473122 
0.17 1.5359635336 0.13285160768 
0.18 1.6133029473 0.13798395414 
0.19 1.6885147338 0.14269747478 
0.2 1.7615084089 0.14697914579 
0.21 1.8321976649 0.15081719789 
0.22 1.9005005107 0.15420108841 
0.23 1.9663394011 0.15712146331 
0.24 2.0296413546 0.1595701096 
0.25 2.0903380608 0.16153989871 
0.26 2.1483659761 0.16302472131 
0.27 2.2036664071 0.16401941472 
0.28 2.2561855837 0.16451968326 
0.29 2.3058747198 0.16452201269 
0.3 2.3526900627 0.16402357964 
0.31 2.3965929308 0.16302215697 
0.32 2.4375497405 0.16151601633 
0.33 2.47553202 0.15950382976 
0.34 2.5105164153 0.15698456747 
0.35 2.5424846808 0.15395740171 
0.36 2.5714236632 0.15042160537 
0.37 2.5973252719 0.14637646098 
0.38 2.6201864413 0.1418211667 
0.39 2.6400090812 0.13675475182 
0.4 2.656800019 0.13117599797 
0.41 2.6705709318 0.12508336664 
0.42 2.6813382697 0.11847493564 
0.43 2.6891231705 0.11134834475 
0.44 2.6939513661 0.10370075183 
0.45 2.6958530808 0.095528799788 
0.46 2.6948629223 0.08682859545 
0.47 2.691019766 0.077595700813 
0.48 2.6843666319 0.0678251373 
0.49 2.67495056 0.05751140468 
0.5 2.6628224652 0.046648507015 
0.51 2.6480370052 0.035230002807 
0.52 2.6306524417 0.023249062485 
0.53 2.6107304728 0.01069853798 
0.54 2.5883360928 -0.0024289480606 
0.55 2.5635374407 -0.016140907025 
0.56 2.5364056103 -0.030444866583 
0.57 2.5070145355 -0.04534825847 
0.58 2.4754407604 -0.060858265399 
0.59 2.4417633406 -0.07698169907 
0.6 2.4060636091 -0.093724820536 
0.61 2.3684250446 -0.11109319336 
0.62 2.3289331045 -0.12909151854 
0.63 2.2876749919 -0.14772342317 
0.64 2.2447395631 -0.16699132795 
0.65 2.2002171076 -0.18689623649 
0.66 2.1541991471 -0.207437529 
0.67 2.106778317 -0.22861281533 
0.68 2.0580482025 -0.25041776197 
0.69 2.0081030735 -0.27284583785 
0.7 1.9570377911 -0.29588819943 
0.71 1.9049476254 -0.31953351319 
0.72 1.8519280812 -0.34376779092 
0.73 1.7980747634 -0.36857426629 
0.74 1.7434831079 -0.39393316966 
0.75 1.6882483214 -0.41982168903 
0.76 1.6324651881 -0.44621383324 
0.77 1.5762279111 -0.47308033808 
0.78 1.5196299564 -0.50038859053 
0.79 1.4627638993 -0.52810257231 
0.8 1.4057212745 -0.556182824 
0.81 1.3485924289 -0.58458643081 
0.82 1.2914663773 -0.61326703097 
0.83 1.2344306626 -0.64217484755 
0.84 1.1775712184 -0.67125674436 
0.85 1.1209722357 -0.70045630653 
0.86 1.0647160335 -0.72971394604 
0.87 1.0088829333 -0.75896703253 
0.88 0.95355113746 -0.78815004929 
0.89 0.89879661177 -0.81719477446 
0.9 0.84469297293 -0.84603048702 
0.91 0.79131138006 -0.87458419713 
0.92 0.73872043124 -0.90278090003 
0.93 0.68698606497 -0.93054385277 
0.94 0.63617146684 -0.95779487229 
0.95 0.58633698152 -0.98445465379 
0.96 0.53754003043 -1.0104431075 
0.97 0.48983504535 -1.0356797023 
0.98 0.44327345613 -1.0600837605 
0.99 0.39790338607 -1.0835750838 
1.0 0.35376983836 -1.1060741356 
1.01 0.31091456479 -1.1275025064 
1.02 0.26937602037 -1.1477833227 
1.03 0.2291893249 -1.1668416576 
1.04 0.1903863653 -1.1846046572 
1.05 0.15299535695 -1.2010027561 
1.06 0.11704119352 -1.2159694532 
1.07 0.082545354793 -1.2294418342 
1.08 0.049525898132 -1.2413609595 
1.09 0.017997601843 -1.2516717726 
1.1 -0.012028549341 -1.2603250611 
1.11 -0.040544807606 -1.2672763187 
1.12 -0.067546797948 -1.2724864835 
1.13 -0.093033339183 -1.2759215748 
1.14 -0.11700689116 -1.2775549612 
1.15 -0.13947307489 -1.2773660698 
1.16 -0.16044066263 -1.2753406584 
1.17 -0.1799214596 -1.2714704463 
1.18 -0.19793069007 -1.265756068 
1.19 -0.21448639064 -1.2582043534 
1.2 -0.22960943295 -1.2488285524 
1.21 -0.2433236681 -1.2376501706 
1.22 -0.25565566354 -1.2246983484 
1.23 -0.26663451324 -1.2100084628 
1.24 -0.27629188525 -1.1936232013 
1.25 -0.28466183472 -1.1755935789 
1.26 -0.29178062002 -1.155976269 
1.27 -0.29768672249 -1.1348345846 
1.28 -0.30242046062 -1.1122396232 
1.29 -0.30602406598 -1.088267336 
1.3 -0.30854157043 -1.0629997704 
1.31 -0.31001819726 -1.0365250343 
1.32 -0.31050087775 -1.0089352827 
1.33 -0.31003764055 -0.98032779063 
1.34 -0.30867717639 -0.95080343198 
1.35 -0.30646980565 -0.9204666562 
1.36 -0.30346567995 -0.8894244991 
1.37 -0.29971567521 -0.8577857055 
1.38 -0.29527170363 -0.82566177506 
1.39 -0.29018432909 -0.79316249455 
1.4 -0.28450553248 -0.76039989992 
1.41 -0.27828609567 -0.72748364311 
1.42 -0.2715762135 -0.69452076019 
1.43 -0.26442690866 -0.66161957233 
1.44 -0.25688587256 -0.62887828982 
1.45 -0.24900245685 -0.59639782263 
1.46 -0.24082261695 -0.56426774182 
1.47 -0.23239193366 -0.5325738435 
1.48 -0.2237548533 -0.50139653651 
1.49 -0.21495199721 -0.47080066233 
1.5 -0.20602569648 -0.44085464276 
1.51 -0.19701135847 -0.41159948444 
1.52 -0.18794692464 -0.3830824256 
1.53 -0.17886366637 -0.35532268336 
1.54 -0.16979331083 -0.32833812366 
1.55 -0.16076278084 -0.30212269405 
1.56 -0.15179760108 -0.27667011066 
1.57 -0.1429213523 -0.2519647439 
1.58 -0.13415532208 -0.22799954779 
1.59 -0.1255211091 -0.2047668673 
1.6 -0.11703666692 -0.18226599837 
1.61 -0.10872133819 -0.16049430251 
1.62 -0.10058994346 -0.13945549162 
1.63 -0.09265944542 -0.11915070333 
1.64 -0.084941752232 -0.099586071452 
1.65 -0.077451257792 -0.080765524401 
1.66 -0.070197275174 -0.062695898684 
1.67 -0.063191492791 -0.045382749502 
1.68 -0.056440829566 -0.028832356975 
1.69 -0.049954365936 -0.013050658096 
1.7 -0.043736656242 0.001957613557 
1.71 -0.037794344084 0.016187206858 
1.72 -0.03212968178 0.029635828474 
1.73 -0.02674704724 0.042299748861 
1.74 -0.021646567231 0.054179770044 
1.75 -0.0168302969 0.065274627112 
1.76 -0.012296624982 0.075588395422 
1.77 -0.0080453042059 0.085123128668 
1.78 -0.0040732300915 0.093886193988 
1.79 -0.00037798678725 0.101883607 
1.8 0.0030448270528 0.1091259203 
1.81 0.0061996009331 0.1156235276 
1.82 0.00909186997 0.12138998121 
1.83 0.011727742775 0.12644019508 
1.84 0.014113770491 0.13079053997 
1.85 0.016257463002 0.13446026594 
1.86 0.018166320916 0.13746846269 
1.87 0.019848879842 0.13983817618 
1.88 0.021313568904 0.1415912454 
1.89 0.022569546177 0.14275349129 
1.9 0.023626141447 0.14335007871 
1.91 0.024492854656 0.14340831 
1.92 0.025179584799 0.14295621912 
1.93 0.025696219823 0.14202251286 
1.94 0.026052746862 0.14063684314 
1.95 0.026259552872 0.13882961591 
1.96 0.026326300471 0.13663070425 
1.97 0.026263752009 0.13407217695 
1.98 0.02608129837 0.13118365659 
1.99 0.025789290326 0.12799707953 
2.0 0.025397402047 0.12454290483 
2.01 0.024914925531 0.12085088676 
2.02 0.024352033655 0.1169531 
2.03 0.023716837976 0.11287624017 
2.04 0.023019190256 0.10865188769 
2.05 0.022266973508 0.10430601266 
2.06 0.021468518222 0.099865988792 
2.07 0.020632284808 0.095359551798 
2.08 0.019764763992 0.090808440936 
2.09 0.01887440741 0.086240544219 
2.1 0.017966933206 0.081675008486 
2.11 0.01704899004 0.077134008078 
2.12 0.016127054668 0.072639101194 
2.13 0.015205599318 0.068205173077 
2.14 0.014291051046 0.06385367848 
2.15 0.013387138436 0.059596821014 
2.16 0.012498243783 0.055449036825 
2.17 0.011629022616 0.051425662577 
2.18 0.010781788003 0.047533806997 
2.19 0.0099606012042 0.043786706736 
2.2 0.009167684084 0.040191015179 
2.21 0.008404914291 0.036752125112 
2.22 0.0076754254211 0.033479893477 
2.23 0.0069795731638 0.030374140799 
2.24 0.0063190606467 0.027439504093 
2.25 0.0056950800008 0.024678733634 
2.26 0.0051075325868 0.022089873886 
2.27 0.0045574559035 0.019675028533 
2.28 0.0040445186164 0.01743133472 
2.29 0.0035682432895 0.015355364311 
2.3 0.003128957866 0.013446510751 
2.31 0.0027252958785 0.011698139377 
2.32 0.0023565457005 0.010105870515 
2.33 0.0020219852126 0.0086652455425 
2.34 0.0017200311022 0.0073688563689 
2.35 0.0014495350572 0.006210665095 
2.36 0.0012091007449 0.0051838401492 
2.37 0.00099700715048 0.0042805282123 
2.38 0.00081172647097 0.0034932808678 
2.39 0.00065152865292 0.0028142450178 
2.4 0.00051460732496 0.0022353489483 
2.41 0.00039914310553 0.0017481097988 
2.42 0.0003033316556 0.00134467944 
2.43 0.00022532868889 0.0010169735281 
2.44 0.00016312877112 0.00075592557169 
2.45 0.00011501705324 0.00055432086225 
2.46 7.9156377216e-05 0.00040425308893 
2.47 5.3468033391e-05 0.00029655562843 
2.48 3.639376566e-05 0.00022486159775 
2.49 2.6161426475e-05 0.00018186382061 
2.5 2.1148230676e-05 0.00016329701343 
2.51 1.9124458422e-05 0.00015459980876 
2.52 1.7735222985e-05 0.00014277143483 
2.53 1.1453401731e-05 9.402450204e-05 
2.54 5.1434912827e-06 4.2839477517e-05 
2.55 -8.4847896652e-08 -6.819965294e-07 
2.56 -1.1728953986e-06 -9.427583037e-06 
2.57 -9.3586385312e-07 -7.5223538238e-06 
2.58 -1.7871991486e-08 -1.4365277924e-07 
2.59 0.0 0.0 
2.6 0.0 0.0 
2.61 0.0 0.0 
2.62 0.0 0.0 
2.63 0.0 0.0 
2.64 0.0 0.0 
2.65 0.0 0.0 
2.66 0.0 0.0 
2.67 0.0 0.0 
2.68 0.0 0.0 
2.69 0.0 0.0 
2.7 0.0 0.0 
2.71 0.0 0.0 
2.72 0.0 0.0 
2.73 0.0 0.0 
2.74 0.0 0.0 
2.75 0.0 0.0 
2.76 0.0 0.0 
2.77 0.0 0.0 
2.78 0.0 0.0 
2.79 0.0 0.0 
2.8 0.0 0.0 
2.81 0.0 0.0 
2.82 0.0 0.0 
2.83 0.0 0.0 
2.84 0.0 0.0 
2.85 0.0 0.0 
2.86 0.0 0.0 
2.87 0.0 0.0 
2.88 0.0 0.0 
2.89 0.0 0.0 
2.9 0.0 0.0 
2.91 0.0 0.0 
2.92 0.0 0.0 
2.93 0.0 0.0 
2.94 0.0 0.0 
2.95 0.0 0.0 
2.96 0.0 0.0 
2.97 0.0 0.0 
2.98 0.0 0.0 
2.99 0.0 0.0 
3.0 0.0 0.0 
3.01 0.0 0.0 
3.02 0.0 0.0 
3.03 0.0 0.0 
3.04 0.0 0.0 
3.05 0.0 0.0 
3.06 0.0 0.0 
3.07 0.0 0.0 
3.08 0.0 0.0 
3.09 0.0 0.0 
3.1 0.0 0.0 
3.11 0.0 0.0 
3.12 0.0 0.0 
3.13 0.0 0.0 
3.14 0.0 0.0 
3.15 0.0 0.0 
3.16 0.0 0.0 
3.17 0.0 0.0 
3.18 0.0 0.0 
3.19 0.0 0.0 
3.2 0.0 0.0 
3.21 0.0 0.0 
3.22 0.0 0.0 
3.23 0.0 0.0 
3.24 0.0 0.0 
3.25 0.0 0.0 
3.26 0.0 0.0 
3.27 0.0 0.0 
3.28 0.0 0.0 
3.29 0.0 0.0 
3.3 0.0 0.0 
3.31 0.0 0.0 
3.32 0.0 0.0 
3.33 0.0 0.0 
3.34 0.0 0.0 
3.35 0.0 0.0 
3.36 0.0 0.0 
3.37 0.0 0.0 
3.38 0.0 0.0 
3.39 0.0 0.0 
3.4 0.0 0.0 
3.41 0.0 0.0 
3.42 0.0 0.0 
3.43 0.0 0.0 
3.44 0.0 0.0 
3.45 0.0 0.0 
3.46 0.0 0.0 
3.47 0.0 0.0 
3.48 0.0 0.0 
3.49 0.0 0.0 
3.5 0.0 0.0 
3.51 0.0 0.0 
3.52 0.0 0.0 
3.53 0.0 0.0 
3.54 0.0 0.0 
3.55 0.0 0.0 
3.56 0.0 0.0 
3.57 0.0 0.0 
3.58 0.0 0.0 
3.59 0.0 0.0 
3.6 0.0 0.0 
3.61 0.0 0.0 
3.62 0.0 0.0 
3.63 0.0 0.0 
3.64 0.0 0.0 
3.65 0.0 0.0 
3.66 0.0 0.0 
3.67 0.0 0.0 
3.68 0.0 0.0 
3.69 0.0 0.0 
3.7 0.0 0.0 
3.71 0.0 0.0 
3.72 0.0 0.0 
3.73 0.0 0.0 
3.74 0.0 0.0 
3.75 0.0 0.0 
3.76 0.0 0.0 
3.77 0.0 0.0 
3.78 0.0 0.0 
3.79 0.0 0.0 
3.8 0.0 0.0 
3.81 0.0 0.0 
3.82 0.0 0.0 
3.83 0.0 0.0 
3.84 0.0 0.0 
3.85 0.0 0.0 
3.86 0.0 0.0 
3.87 0.0 0.0 
3.88 0.0 0.0 
3.89 0.0 0.0 
3.9 0.0 0.0 
3.91 0.0 0.0 
3.92 0.0 0.0 
3.93 0.0 0.0 
3.94 0.0 0.0 
3.95 0.0 0.0 
3.96 0.0 0.0 
3.97 0.0 0.0 
3.98 0.0 0.0 
3.99 0.0 0.0 
4.0 0.0 0.0 
4.01 0.0 0.0 
4.02 0.0 0.0 
4.03 0.0 0.0 
4.04 0.0 0.0 
4.05 0.0 0.0 
4.06 0.0 0.0 
4.07 0.0 0.0 
4.08 0.0 0.0 
4.09 0.0 0.0 
4.1 0.0 0.0 
4.11 0.0 0.0 
4.12 0.0 0.0 
4.13 0.0 0.0 
4.14 0.0 0.0 
4.15 0.0 0.0 
4.16 0.0 0.0 
4.17 0.0 0.0 
4.18 0.0 0.0 
4.19 0.0 0.0 
4.2 0.0 0.0 
4.21 0.0 0.0 
4.22 0.0 0.0 
4.23 0.0 0.0 
4.24 0.0 0.0 
4.25 0.0 0.0 
4.26 0.0 0.0 
4.27 0.0 0.0 
4.28 0.0 0.0 
4.29 0.0 0.0 
4.3 0.0 0.0 
4.31 0.0 0.0 
4.32 0.0 0.0 
4.33 0.0 0.0 
4.34 0.0 0.0 
4.35 0.0 0.0 
4.36 0.0 0.0 
4.37 0.0 0.0 
4.38 0.0 0.0 
4.39 0.0 0.0 
4.4 0.0 0.0 
4.41 0.0 0.0 
4.42 0.0 0.0 
4.43 0.0 0.0 
4.44 0.0 0.0 
4.45 0.0 0.0 
4.46 0.0 0.0 
4.47 0.0 0.0 
4.48 0.0 0.0 
4.49 0.0 0.0 
4.5 0.0 0.0 
4.51 0.0 0.0 
4.52 0.0 0.0 
4.53 0.0 0.0 
4.54 0.0 0.0 
4.55 0.0 0.0 
4.56 0.0 0.0 
4.57 0.0 0.0 
4.58 0.0 0.0 
4.59 0.0 0.0 
4.6 0.0 0.0 
4.61 0.0 0.0 
4.62 0.0 0.0 
4.63 0.0 0.0 
4.64 0.0 0.0 
4.65 0.0 0.0 
4.66 0.0 0.0 
4.67 0.0 0.0 
4.68 0.0 0.0 
4.69 0.0 0.0 
4.7 0.0 0.0 
4.71 0.0 0.0 
4.72 0.0 0.0 
4.73 0.0 0.0 
4.74 0.0 0.0 
4.75 0.0 0.0 
4.76 0.0 0.0 
4.77 0.0 0.0 
4.78 0.0 0.0 
4.79 0.0 0.0 
4.8 0.0 0.0 
4.81 0.0 0.0 
4.82 0.0 0.0 
4.83 0.0 0.0 
4.84 0.0 0.0 
4.85 0.0 0.0 
4.86 0.0 0.0 
4.87 0.0 0.0 
4.88 0.0 0.0 
4.89 0.0 0.0 
4.9 0.0 0.0 
4.91 0.0 0.0 
4.92 0.0 0.0 
4.93 0.0 0.0 
4.94 0.0 0.0 
4.95 0.0 0.0 
4.96 0.0 0.0 
4.97 0.0 0.0 
4.98 0.0 0.0 
4.99 0.0 0.0 
5.0 0.0 0.0 
5.01 0.0 0.0 
5.02 0.0 0.0 
5.03 0.0 0.0 
5.04 0.0 0.0 
5.05 0.0 0.0 
5.06 0.0 0.0 
5.07 0.0 0.0 
5.08 0.0 0.0 
5.09 0.0 0.0 
5.1 0.0 0.0 
5.11 0.0 0.0 
5.12 0.0 0.0 
5.13 0.0 0.0 
5.14 0.0 0.0 
5.15 0.0 0.0 
5.16 0.0 0.0 
5.17 0.0 0.0 
5.18 0.0 0.0 
5.19 0.0 0.0 
5.2 0.0 0.0 
5.21 0.0 0.0 
5.22 0.0 0.0 
5.23 0.0 0.0 
5.24 0.0 0.0 
5.25 0.0 0.0 
5.26 0.0 0.0 
5.27 0.0 0.0 
5.28 0.0 0.0 
5.29 0.0 0.0 
5.3 0.0 0.0 
5.31 0.0 0.0 
5.32 0.0 0.0 
5.33 0.0 0.0 
5.34 0.0 0.0 
5.35 0.0 0.0 
5.36 0.0 0.0 
5.37 0.0 0.0 
5.38 0.0 0.0 
5.39 0.0 0.0 
5.4 0.0 0.0 
5.41 0.0 0.0 
5.42 0.0 0.0 
5.43 0.0 0.0 
5.44 0.0 0.0 
5.45 0.0 0.0 
5.46 0.0 0.0 
5.47 0.0 0.0 
5.48 0.0 0.0 
5.49 0.0 0.0 
5.5 0.0 0.0 
5.51 0.0 0.0 
5.52 0.0 0.0 
5.53 0.0 0.0 
5.54 0.0 0.0 
5.55 0.0 0.0 
5.56 0.0 0.0 
5.57 0.0 0.0 
5.58 0.0 0.0 
5.59 0.0 0.0 
5.6 0.0 0.0 
5.61 0.0 0.0 
5.62 0.0 0.0 
5.63 0.0 0.0 
5.64 0.0 0.0 
5.65 0.0 0.0 
5.66 0.0 0.0 
5.67 0.0 0.0 
5.68 0.0 0.0 
5.69 0.0 0.0 
5.7 0.0 0.0 
5.71 0.0 0.0 
5.72 0.0 0.0 
5.73 0.0 0.0 
5.74 0.0 0.0 
5.75 0.0 0.0 
5.76 0.0 0.0 
5.77 0.0 0.0 
5.78 0.0 0.0 
5.79 0.0 0.0 
5.8 0.0 0.0 
5.81 0.0 0.0 
5.82 0.0 0.0 
5.83 0.0 0.0 
5.84 0.0 0.0 
5.85 0.0 0.0 
5.86 0.0 0.0 
5.87 0.0 0.0 
5.88 0.0 0.0 
5.89 0.0 0.0 
5.9 0.0 0.0 
5.91 0.0 0.0 
5.92 0.0 0.0 
5.93 0.0 0.0 
5.94 0.0 0.0 
5.95 0.0 0.0 
5.96 0.0 0.0 
5.97 0.0 0.0 
5.98 0.0 0.0 
5.99 0.0 0.0 
6.0 0.0 0.0 
6.01 0.0 0.0 
# l= 2
0.0 0.0 0.0 
0.01 -0.0014124159485 0.0014448258769 
0.02 -0.0056455439373 0.0057713725093 
0.03 -0.012687036692 0.012955887196 
0.04 -0.022516356364 0.0229589162 
0.05 -0.035104835809 0.035725505138 
0.06 -0.050415764071 0.051185478046 
0.07 -0.068404495822 0.069253793611 
0.08 -0.089018584353 0.089830976697 
0.09 -0.1121979377 0.11280362286 
0.1 -0.13787499739 0.13804497315 
0.11 -0.16597493914 0.16541555627 
0.12 -0.19641589499 0.19476389443 
0.13 -0.22910919596 0.22592726953 
0.14 -0.26395963459 0.25873254523 
0.15 -0.30086574633 0.29299704091 
0.16 -0.33972010902 0.32852945267 
0.17 -0.38040965939 0.36513081664 
0.18 -0.42281602553 0.40259550955 
0.19 -0.46681587434 0.44071228135 
0.2 -0.5122812727 0.47926531429 
0.21 -0.55908006137 0.51803530323 
0.22 -0.60707624019 0.55680055132 
0.23 -0.65613036363 0.59533807564 